NAME TRANSPORT_60x60
ROWS
 N  COST
 E  S0
 E  S1
 E  S2
 E  S3
 E  S4
 E  S5
 E  S6
 E  S7
 E  S8
 E  S9
 E  S10
 E  S11
 E  S12
 E  S13
 E  S14
 E  S15
 E  S16
 E  S17
 E  S18
 E  S19
 E  S20
 E  S21
 E  S22
 E  S23
 E  S24
 E  S25
 E  S26
 E  S27
 E  S28
 E  S29
 E  S30
 E  S31
 E  S32
 E  S33
 E  S34
 E  S35
 E  S36
 E  S37
 E  S38
 E  S39
 E  S40
 E  S41
 E  S42
 E  S43
 E  S44
 E  S45
 E  S46
 E  S47
 E  S48
 E  S49
 E  S50
 E  S51
 E  S52
 E  S53
 E  S54
 E  S55
 E  S56
 E  S57
 E  S58
 E  S59
 E  D0
 E  D1
 E  D2
 E  D3
 E  D4
 E  D5
 E  D6
 E  D7
 E  D8
 E  D9
 E  D10
 E  D11
 E  D12
 E  D13
 E  D14
 E  D15
 E  D16
 E  D17
 E  D18
 E  D19
 E  D20
 E  D21
 E  D22
 E  D23
 E  D24
 E  D25
 E  D26
 E  D27
 E  D28
 E  D29
 E  D30
 E  D31
 E  D32
 E  D33
 E  D34
 E  D35
 E  D36
 E  D37
 E  D38
 E  D39
 E  D40
 E  D41
 E  D42
 E  D43
 E  D44
 E  D45
 E  D46
 E  D47
 E  D48
 E  D49
 E  D50
 E  D51
 E  D52
 E  D53
 E  D54
 E  D55
 E  D56
 E  D57
 E  D58
 E  D59
COLUMNS
    x_0_0  COST  660213  S0  1
    x_0_0  D0  1
    x_0_1  COST  399274  S0  1
    x_0_1  D1  1
    x_0_2  COST  323571  S0  1
    x_0_2  D2  1
    x_0_3  COST  44329  S0  1
    x_0_3  D3  1
    x_0_4  COST  180478  S0  1
    x_0_4  D4  1
    x_0_5  COST  456055  S0  1
    x_0_5  D5  1
    x_0_6  COST  857378  S0  1
    x_0_6  D6  1
    x_0_7  COST  908606  S0  1
    x_0_7  D7  1
    x_0_8  COST  293379  S0  1
    x_0_8  D8  1
    x_0_9  COST  463864  S0  1
    x_0_9  D9  1
    x_0_10  COST  133500  S0  1
    x_0_10  D10  1
    x_0_11  COST  335220  S0  1
    x_0_11  D11  1
    x_0_12  COST  750495  S0  1
    x_0_12  D12  1
    x_0_13  COST  944229  S0  1
    x_0_13  D13  1
    x_0_14  COST  789427  S0  1
    x_0_14  D14  1
    x_0_15  COST  685367  S0  1
    x_0_15  D15  1
    x_0_16  COST  654515  S0  1
    x_0_16  D16  1
    x_0_17  COST  889354  S0  1
    x_0_17  D17  1
    x_0_18  COST  416430  S0  1
    x_0_18  D18  1
    x_0_19  COST  198817  S0  1
    x_0_19  D19  1
    x_0_20  COST  707584  S0  1
    x_0_20  D20  1
    x_0_21  COST  103613  S0  1
    x_0_21  D21  1
    x_0_22  COST  652651  S0  1
    x_0_22  D22  1
    x_0_23  COST  563030  S0  1
    x_0_23  D23  1
    x_0_24  COST  667218  S0  1
    x_0_24  D24  1
    x_0_25  COST  22302  S0  1
    x_0_25  D25  1
    x_0_26  COST  550663  S0  1
    x_0_26  D26  1
    x_0_27  COST  707419  S0  1
    x_0_27  D27  1
    x_0_28  COST  657984  S0  1
    x_0_28  D28  1
    x_0_29  COST  956770  S0  1
    x_0_29  D29  1
    x_0_30  COST  314564  S0  1
    x_0_30  D30  1
    x_0_31  COST  522984  S0  1
    x_0_31  D31  1
    x_0_32  COST  82017  S0  1
    x_0_32  D32  1
    x_0_33  COST  37030  S0  1
    x_0_33  D33  1
    x_0_34  COST  867376  S0  1
    x_0_34  D34  1
    x_0_35  COST  387057  S0  1
    x_0_35  D35  1
    x_0_36  COST  516517  S0  1
    x_0_36  D36  1
    x_0_37  COST  421765  S0  1
    x_0_37  D37  1
    x_0_38  COST  518626  S0  1
    x_0_38  D38  1
    x_0_39  COST  988494  S0  1
    x_0_39  D39  1
    x_0_40  COST  707620  S0  1
    x_0_40  D40  1
    x_0_41  COST  924709  S0  1
    x_0_41  D41  1
    x_0_42  COST  849836  S0  1
    x_0_42  D42  1
    x_0_43  COST  723999  S0  1
    x_0_43  D43  1
    x_0_44  COST  956897  S0  1
    x_0_44  D44  1
    x_0_45  COST  363356  S0  1
    x_0_45  D45  1
    x_0_46  COST  771196  S0  1
    x_0_46  D46  1
    x_0_47  COST  986426  S0  1
    x_0_47  D47  1
    x_0_48  COST  260586  S0  1
    x_0_48  D48  1
    x_0_49  COST  541734  S0  1
    x_0_49  D49  1
    x_0_50  COST  866884  S0  1
    x_0_50  D50  1
    x_0_51  COST  645339  S0  1
    x_0_51  D51  1
    x_0_52  COST  161364  S0  1
    x_0_52  D52  1
    x_0_53  COST  328523  S0  1
    x_0_53  D53  1
    x_0_54  COST  169865  S0  1
    x_0_54  D54  1
    x_0_55  COST  837379  S0  1
    x_0_55  D55  1
    x_0_56  COST  582220  S0  1
    x_0_56  D56  1
    x_0_57  COST  927851  S0  1
    x_0_57  D57  1
    x_0_58  COST  528344  S0  1
    x_0_58  D58  1
    x_0_59  COST  991014  S0  1
    x_0_59  D59  1
    x_1_0  COST  914415  S1  1
    x_1_0  D0  1
    x_1_1  COST  100453  S1  1
    x_1_1  D1  1
    x_1_2  COST  136283  S1  1
    x_1_2  D2  1
    x_1_3  COST  322851  S1  1
    x_1_3  D3  1
    x_1_4  COST  451828  S1  1
    x_1_4  D4  1
    x_1_5  COST  450233  S1  1
    x_1_5  D5  1
    x_1_6  COST  704600  S1  1
    x_1_6  D6  1
    x_1_7  COST  254078  S1  1
    x_1_7  D7  1
    x_1_8  COST  224271  S1  1
    x_1_8  D8  1
    x_1_9  COST  879718  S1  1
    x_1_9  D9  1
    x_1_10  COST  170665  S1  1
    x_1_10  D10  1
    x_1_11  COST  310942  S1  1
    x_1_11  D11  1
    x_1_12  COST  805859  S1  1
    x_1_12  D12  1
    x_1_13  COST  560714  S1  1
    x_1_13  D13  1
    x_1_14  COST  594333  S1  1
    x_1_14  D14  1
    x_1_15  COST  142684  S1  1
    x_1_15  D15  1
    x_1_16  COST  437897  S1  1
    x_1_16  D16  1
    x_1_17  COST  916678  S1  1
    x_1_17  D17  1
    x_1_18  COST  790571  S1  1
    x_1_18  D18  1
    x_1_19  COST  9821  S1  1
    x_1_19  D19  1
    x_1_20  COST  917347  S1  1
    x_1_20  D20  1
    x_1_21  COST  482781  S1  1
    x_1_21  D21  1
    x_1_22  COST  816849  S1  1
    x_1_22  D22  1
    x_1_23  COST  42203  S1  1
    x_1_23  D23  1
    x_1_24  COST  124721  S1  1
    x_1_24  D24  1
    x_1_25  COST  443331  S1  1
    x_1_25  D25  1
    x_1_26  COST  395042  S1  1
    x_1_26  D26  1
    x_1_27  COST  495709  S1  1
    x_1_27  D27  1
    x_1_28  COST  756642  S1  1
    x_1_28  D28  1
    x_1_29  COST  794229  S1  1
    x_1_29  D29  1
    x_1_30  COST  815604  S1  1
    x_1_30  D30  1
    x_1_31  COST  163384  S1  1
    x_1_31  D31  1
    x_1_32  COST  951032  S1  1
    x_1_32  D32  1
    x_1_33  COST  569285  S1  1
    x_1_33  D33  1
    x_1_34  COST  601075  S1  1
    x_1_34  D34  1
    x_1_35  COST  935498  S1  1
    x_1_35  D35  1
    x_1_36  COST  803844  S1  1
    x_1_36  D36  1
    x_1_37  COST  398642  S1  1
    x_1_37  D37  1
    x_1_38  COST  221765  S1  1
    x_1_38  D38  1
    x_1_39  COST  779897  S1  1
    x_1_39  D39  1
    x_1_40  COST  431566  S1  1
    x_1_40  D40  1
    x_1_41  COST  394694  S1  1
    x_1_41  D41  1
    x_1_42  COST  950806  S1  1
    x_1_42  D42  1
    x_1_43  COST  554469  S1  1
    x_1_43  D43  1
    x_1_44  COST  890812  S1  1
    x_1_44  D44  1
    x_1_45  COST  168890  S1  1
    x_1_45  D45  1
    x_1_46  COST  923571  S1  1
    x_1_46  D46  1
    x_1_47  COST  541566  S1  1
    x_1_47  D47  1
    x_1_48  COST  996900  S1  1
    x_1_48  D48  1
    x_1_49  COST  598981  S1  1
    x_1_49  D49  1
    x_1_50  COST  740661  S1  1
    x_1_50  D50  1
    x_1_51  COST  405727  S1  1
    x_1_51  D51  1
    x_1_52  COST  939189  S1  1
    x_1_52  D52  1
    x_1_53  COST  58239  S1  1
    x_1_53  D53  1
    x_1_54  COST  521162  S1  1
    x_1_54  D54  1
    x_1_55  COST  946888  S1  1
    x_1_55  D55  1
    x_1_56  COST  656220  S1  1
    x_1_56  D56  1
    x_1_57  COST  240481  S1  1
    x_1_57  D57  1
    x_1_58  COST  758444  S1  1
    x_1_58  D58  1
    x_1_59  COST  571436  S1  1
    x_1_59  D59  1
    x_2_0  COST  943852  S2  1
    x_2_0  D0  1
    x_2_1  COST  566945  S2  1
    x_2_1  D1  1
    x_2_2  COST  418111  S2  1
    x_2_2  D2  1
    x_2_3  COST  225647  S2  1
    x_2_3  D3  1
    x_2_4  COST  976885  S2  1
    x_2_4  D4  1
    x_2_5  COST  108780  S2  1
    x_2_5  D5  1
    x_2_6  COST  93209  S2  1
    x_2_6  D6  1
    x_2_7  COST  771561  S2  1
    x_2_7  D7  1
    x_2_8  COST  354631  S2  1
    x_2_8  D8  1
    x_2_9  COST  264463  S2  1
    x_2_9  D9  1
    x_2_10  COST  920151  S2  1
    x_2_10  D10  1
    x_2_11  COST  522964  S2  1
    x_2_11  D11  1
    x_2_12  COST  985002  S2  1
    x_2_12  D12  1
    x_2_13  COST  5348  S2  1
    x_2_13  D13  1
    x_2_14  COST  534970  S2  1
    x_2_14  D14  1
    x_2_15  COST  145613  S2  1
    x_2_15  D15  1
    x_2_16  COST  376510  S2  1
    x_2_16  D16  1
    x_2_17  COST  925948  S2  1
    x_2_17  D17  1
    x_2_18  COST  599713  S2  1
    x_2_18  D18  1
    x_2_19  COST  563820  S2  1
    x_2_19  D19  1
    x_2_20  COST  150253  S2  1
    x_2_20  D20  1
    x_2_21  COST  102740  S2  1
    x_2_21  D21  1
    x_2_22  COST  997838  S2  1
    x_2_22  D22  1
    x_2_23  COST  301695  S2  1
    x_2_23  D23  1
    x_2_24  COST  641983  S2  1
    x_2_24  D24  1
    x_2_25  COST  947238  S2  1
    x_2_25  D25  1
    x_2_26  COST  606243  S2  1
    x_2_26  D26  1
    x_2_27  COST  703316  S2  1
    x_2_27  D27  1
    x_2_28  COST  148813  S2  1
    x_2_28  D28  1
    x_2_29  COST  442227  S2  1
    x_2_29  D29  1
    x_2_30  COST  81660  S2  1
    x_2_30  D30  1
    x_2_31  COST  126809  S2  1
    x_2_31  D31  1
    x_2_32  COST  580750  S2  1
    x_2_32  D32  1
    x_2_33  COST  131067  S2  1
    x_2_33  D33  1
    x_2_34  COST  581429  S2  1
    x_2_34  D34  1
    x_2_35  COST  556276  S2  1
    x_2_35  D35  1
    x_2_36  COST  419848  S2  1
    x_2_36  D36  1
    x_2_37  COST  949979  S2  1
    x_2_37  D37  1
    x_2_38  COST  424077  S2  1
    x_2_38  D38  1
    x_2_39  COST  712050  S2  1
    x_2_39  D39  1
    x_2_40  COST  351347  S2  1
    x_2_40  D40  1
    x_2_41  COST  397864  S2  1
    x_2_41  D41  1
    x_2_42  COST  925135  S2  1
    x_2_42  D42  1
    x_2_43  COST  601358  S2  1
    x_2_43  D43  1
    x_2_44  COST  782195  S2  1
    x_2_44  D44  1
    x_2_45  COST  499060  S2  1
    x_2_45  D45  1
    x_2_46  COST  563956  S2  1
    x_2_46  D46  1
    x_2_47  COST  32928  S2  1
    x_2_47  D47  1
    x_2_48  COST  270270  S2  1
    x_2_48  D48  1
    x_2_49  COST  175302  S2  1
    x_2_49  D49  1
    x_2_50  COST  456360  S2  1
    x_2_50  D50  1
    x_2_51  COST  226607  S2  1
    x_2_51  D51  1
    x_2_52  COST  28838  S2  1
    x_2_52  D52  1
    x_2_53  COST  310165  S2  1
    x_2_53  D53  1
    x_2_54  COST  991886  S2  1
    x_2_54  D54  1
    x_2_55  COST  588720  S2  1
    x_2_55  D55  1
    x_2_56  COST  520832  S2  1
    x_2_56  D56  1
    x_2_57  COST  230431  S2  1
    x_2_57  D57  1
    x_2_58  COST  786891  S2  1
    x_2_58  D58  1
    x_2_59  COST  384878  S2  1
    x_2_59  D59  1
    x_3_0  COST  199517  S3  1
    x_3_0  D0  1
    x_3_1  COST  360956  S3  1
    x_3_1  D1  1
    x_3_2  COST  734363  S3  1
    x_3_2  D2  1
    x_3_3  COST  351859  S3  1
    x_3_3  D3  1
    x_3_4  COST  461207  S3  1
    x_3_4  D4  1
    x_3_5  COST  369073  S3  1
    x_3_5  D5  1
    x_3_6  COST  853242  S3  1
    x_3_6  D6  1
    x_3_7  COST  380077  S3  1
    x_3_7  D7  1
    x_3_8  COST  722000  S3  1
    x_3_8  D8  1
    x_3_9  COST  183550  S3  1
    x_3_9  D9  1
    x_3_10  COST  621713  S3  1
    x_3_10  D10  1
    x_3_11  COST  743842  S3  1
    x_3_11  D11  1
    x_3_12  COST  950123  S3  1
    x_3_12  D12  1
    x_3_13  COST  238710  S3  1
    x_3_13  D13  1
    x_3_14  COST  958633  S3  1
    x_3_14  D14  1
    x_3_15  COST  693702  S3  1
    x_3_15  D15  1
    x_3_16  COST  593167  S3  1
    x_3_16  D16  1
    x_3_17  COST  343096  S3  1
    x_3_17  D17  1
    x_3_18  COST  162117  S3  1
    x_3_18  D18  1
    x_3_19  COST  91884  S3  1
    x_3_19  D19  1
    x_3_20  COST  446742  S3  1
    x_3_20  D20  1
    x_3_21  COST  409499  S3  1
    x_3_21  D21  1
    x_3_22  COST  571727  S3  1
    x_3_22  D22  1
    x_3_23  COST  368160  S3  1
    x_3_23  D23  1
    x_3_24  COST  94624  S3  1
    x_3_24  D24  1
    x_3_25  COST  320813  S3  1
    x_3_25  D25  1
    x_3_26  COST  214980  S3  1
    x_3_26  D26  1
    x_3_27  COST  737563  S3  1
    x_3_27  D27  1
    x_3_28  COST  761601  S3  1
    x_3_28  D28  1
    x_3_29  COST  519547  S3  1
    x_3_29  D29  1
    x_3_30  COST  382410  S3  1
    x_3_30  D30  1
    x_3_31  COST  814512  S3  1
    x_3_31  D31  1
    x_3_32  COST  67077  S3  1
    x_3_32  D32  1
    x_3_33  COST  794128  S3  1
    x_3_33  D33  1
    x_3_34  COST  847739  S3  1
    x_3_34  D34  1
    x_3_35  COST  680199  S3  1
    x_3_35  D35  1
    x_3_36  COST  210203  S3  1
    x_3_36  D36  1
    x_3_37  COST  920830  S3  1
    x_3_37  D37  1
    x_3_38  COST  921887  S3  1
    x_3_38  D38  1
    x_3_39  COST  293348  S3  1
    x_3_39  D39  1
    x_3_40  COST  804118  S3  1
    x_3_40  D40  1
    x_3_41  COST  575961  S3  1
    x_3_41  D41  1
    x_3_42  COST  624625  S3  1
    x_3_42  D42  1
    x_3_43  COST  181737  S3  1
    x_3_43  D43  1
    x_3_44  COST  438629  S3  1
    x_3_44  D44  1
    x_3_45  COST  237608  S3  1
    x_3_45  D45  1
    x_3_46  COST  784938  S3  1
    x_3_46  D46  1
    x_3_47  COST  695269  S3  1
    x_3_47  D47  1
    x_3_48  COST  240864  S3  1
    x_3_48  D48  1
    x_3_49  COST  795376  S3  1
    x_3_49  D49  1
    x_3_50  COST  930647  S3  1
    x_3_50  D50  1
    x_3_51  COST  212266  S3  1
    x_3_51  D51  1
    x_3_52  COST  48449  S3  1
    x_3_52  D52  1
    x_3_53  COST  554861  S3  1
    x_3_53  D53  1
    x_3_54  COST  451933  S3  1
    x_3_54  D54  1
    x_3_55  COST  522525  S3  1
    x_3_55  D55  1
    x_3_56  COST  9570  S3  1
    x_3_56  D56  1
    x_3_57  COST  353149  S3  1
    x_3_57  D57  1
    x_3_58  COST  767294  S3  1
    x_3_58  D58  1
    x_3_59  COST  702682  S3  1
    x_3_59  D59  1
    x_4_0  COST  859198  S4  1
    x_4_0  D0  1
    x_4_1  COST  447511  S4  1
    x_4_1  D1  1
    x_4_2  COST  724535  S4  1
    x_4_2  D2  1
    x_4_3  COST  383127  S4  1
    x_4_3  D3  1
    x_4_4  COST  199209  S4  1
    x_4_4  D4  1
    x_4_5  COST  369121  S4  1
    x_4_5  D5  1
    x_4_6  COST  310498  S4  1
    x_4_6  D6  1
    x_4_7  COST  768414  S4  1
    x_4_7  D7  1
    x_4_8  COST  366438  S4  1
    x_4_8  D8  1
    x_4_9  COST  593508  S4  1
    x_4_9  D9  1
    x_4_10  COST  358800  S4  1
    x_4_10  D10  1
    x_4_11  COST  268461  S4  1
    x_4_11  D11  1
    x_4_12  COST  365453  S4  1
    x_4_12  D12  1
    x_4_13  COST  438142  S4  1
    x_4_13  D13  1
    x_4_14  COST  30717  S4  1
    x_4_14  D14  1
    x_4_15  COST  810438  S4  1
    x_4_15  D15  1
    x_4_16  COST  498589  S4  1
    x_4_16  D16  1
    x_4_17  COST  602693  S4  1
    x_4_17  D17  1
    x_4_18  COST  431587  S4  1
    x_4_18  D18  1
    x_4_19  COST  525511  S4  1
    x_4_19  D19  1
    x_4_20  COST  814205  S4  1
    x_4_20  D20  1
    x_4_21  COST  803703  S4  1
    x_4_21  D21  1
    x_4_22  COST  583780  S4  1
    x_4_22  D22  1
    x_4_23  COST  936864  S4  1
    x_4_23  D23  1
    x_4_24  COST  219643  S4  1
    x_4_24  D24  1
    x_4_25  COST  665171  S4  1
    x_4_25  D25  1
    x_4_26  COST  848410  S4  1
    x_4_26  D26  1
    x_4_27  COST  730589  S4  1
    x_4_27  D27  1
    x_4_28  COST  120555  S4  1
    x_4_28  D28  1
    x_4_29  COST  829362  S4  1
    x_4_29  D29  1
    x_4_30  COST  474201  S4  1
    x_4_30  D30  1
    x_4_31  COST  171558  S4  1
    x_4_31  D31  1
    x_4_32  COST  19682  S4  1
    x_4_32  D32  1
    x_4_33  COST  21058  S4  1
    x_4_33  D33  1
    x_4_34  COST  832686  S4  1
    x_4_34  D34  1
    x_4_35  COST  632766  S4  1
    x_4_35  D35  1
    x_4_36  COST  873878  S4  1
    x_4_36  D36  1
    x_4_37  COST  475331  S4  1
    x_4_37  D37  1
    x_4_38  COST  396913  S4  1
    x_4_38  D38  1
    x_4_39  COST  842725  S4  1
    x_4_39  D39  1
    x_4_40  COST  262498  S4  1
    x_4_40  D40  1
    x_4_41  COST  963768  S4  1
    x_4_41  D41  1
    x_4_42  COST  161960  S4  1
    x_4_42  D42  1
    x_4_43  COST  259556  S4  1
    x_4_43  D43  1
    x_4_44  COST  557233  S4  1
    x_4_44  D44  1
    x_4_45  COST  236007  S4  1
    x_4_45  D45  1
    x_4_46  COST  769138  S4  1
    x_4_46  D46  1
    x_4_47  COST  492583  S4  1
    x_4_47  D47  1
    x_4_48  COST  510049  S4  1
    x_4_48  D48  1
    x_4_49  COST  448159  S4  1
    x_4_49  D49  1
    x_4_50  COST  679683  S4  1
    x_4_50  D50  1
    x_4_51  COST  258972  S4  1
    x_4_51  D51  1
    x_4_52  COST  78935  S4  1
    x_4_52  D52  1
    x_4_53  COST  226027  S4  1
    x_4_53  D53  1
    x_4_54  COST  177231  S4  1
    x_4_54  D54  1
    x_4_55  COST  994929  S4  1
    x_4_55  D55  1
    x_4_56  COST  154477  S4  1
    x_4_56  D56  1
    x_4_57  COST  355661  S4  1
    x_4_57  D57  1
    x_4_58  COST  50470  S4  1
    x_4_58  D58  1
    x_4_59  COST  230901  S4  1
    x_4_59  D59  1
    x_5_0  COST  659693  S5  1
    x_5_0  D0  1
    x_5_1  COST  777533  S5  1
    x_5_1  D1  1
    x_5_2  COST  964901  S5  1
    x_5_2  D2  1
    x_5_3  COST  95199  S5  1
    x_5_3  D3  1
    x_5_4  COST  15174  S5  1
    x_5_4  D4  1
    x_5_5  COST  207132  S5  1
    x_5_5  D5  1
    x_5_6  COST  35267  S5  1
    x_5_6  D6  1
    x_5_7  COST  371717  S5  1
    x_5_7  D7  1
    x_5_8  COST  205896  S5  1
    x_5_8  D8  1
    x_5_9  COST  413383  S5  1
    x_5_9  D9  1
    x_5_10  COST  207003  S5  1
    x_5_10  D10  1
    x_5_11  COST  402208  S5  1
    x_5_11  D11  1
    x_5_12  COST  557786  S5  1
    x_5_12  D12  1
    x_5_13  COST  244911  S5  1
    x_5_13  D13  1
    x_5_14  COST  680321  S5  1
    x_5_14  D14  1
    x_5_15  COST  937599  S5  1
    x_5_15  D15  1
    x_5_16  COST  709343  S5  1
    x_5_16  D16  1
    x_5_17  COST  711992  S5  1
    x_5_17  D17  1
    x_5_18  COST  433091  S5  1
    x_5_18  D18  1
    x_5_19  COST  205887  S5  1
    x_5_19  D19  1
    x_5_20  COST  435794  S5  1
    x_5_20  D20  1
    x_5_21  COST  872565  S5  1
    x_5_21  D21  1
    x_5_22  COST  670421  S5  1
    x_5_22  D22  1
    x_5_23  COST  693499  S5  1
    x_5_23  D23  1
    x_5_24  COST  379112  S5  1
    x_5_24  D24  1
    x_5_25  COST  613135  S5  1
    x_5_25  D25  1
    x_5_26  COST  322361  S5  1
    x_5_26  D26  1
    x_5_27  COST  59597  S5  1
    x_5_27  D27  1
    x_5_28  COST  373845  S5  1
    x_5_28  D28  1
    x_5_29  COST  699129  S5  1
    x_5_29  D29  1
    x_5_30  COST  545475  S5  1
    x_5_30  D30  1
    x_5_31  COST  634962  S5  1
    x_5_31  D31  1
    x_5_32  COST  188341  S5  1
    x_5_32  D32  1
    x_5_33  COST  404146  S5  1
    x_5_33  D33  1
    x_5_34  COST  889  S5  1
    x_5_34  D34  1
    x_5_35  COST  924981  S5  1
    x_5_35  D35  1
    x_5_36  COST  207858  S5  1
    x_5_36  D36  1
    x_5_37  COST  3759  S5  1
    x_5_37  D37  1
    x_5_38  COST  735510  S5  1
    x_5_38  D38  1
    x_5_39  COST  654659  S5  1
    x_5_39  D39  1
    x_5_40  COST  503304  S5  1
    x_5_40  D40  1
    x_5_41  COST  286414  S5  1
    x_5_41  D41  1
    x_5_42  COST  203579  S5  1
    x_5_42  D42  1
    x_5_43  COST  504584  S5  1
    x_5_43  D43  1
    x_5_44  COST  527543  S5  1
    x_5_44  D44  1
    x_5_45  COST  404141  S5  1
    x_5_45  D45  1
    x_5_46  COST  537067  S5  1
    x_5_46  D46  1
    x_5_47  COST  145992  S5  1
    x_5_47  D47  1
    x_5_48  COST  325093  S5  1
    x_5_48  D48  1
    x_5_49  COST  24883  S5  1
    x_5_49  D49  1
    x_5_50  COST  608070  S5  1
    x_5_50  D50  1
    x_5_51  COST  97628  S5  1
    x_5_51  D51  1
    x_5_52  COST  644810  S5  1
    x_5_52  D52  1
    x_5_53  COST  999817  S5  1
    x_5_53  D53  1
    x_5_54  COST  963287  S5  1
    x_5_54  D54  1
    x_5_55  COST  87135  S5  1
    x_5_55  D55  1
    x_5_56  COST  388837  S5  1
    x_5_56  D56  1
    x_5_57  COST  684445  S5  1
    x_5_57  D57  1
    x_5_58  COST  174792  S5  1
    x_5_58  D58  1
    x_5_59  COST  82414  S5  1
    x_5_59  D59  1
    x_6_0  COST  508363  S6  1
    x_6_0  D0  1
    x_6_1  COST  10186  S6  1
    x_6_1  D1  1
    x_6_2  COST  994707  S6  1
    x_6_2  D2  1
    x_6_3  COST  702605  S6  1
    x_6_3  D3  1
    x_6_4  COST  242107  S6  1
    x_6_4  D4  1
    x_6_5  COST  774212  S6  1
    x_6_5  D5  1
    x_6_6  COST  643949  S6  1
    x_6_6  D6  1
    x_6_7  COST  330229  S6  1
    x_6_7  D7  1
    x_6_8  COST  496004  S6  1
    x_6_8  D8  1
    x_6_9  COST  73911  S6  1
    x_6_9  D9  1
    x_6_10  COST  4536  S6  1
    x_6_10  D10  1
    x_6_11  COST  769556  S6  1
    x_6_11  D11  1
    x_6_12  COST  170012  S6  1
    x_6_12  D12  1
    x_6_13  COST  261101  S6  1
    x_6_13  D13  1
    x_6_14  COST  395385  S6  1
    x_6_14  D14  1
    x_6_15  COST  6298  S6  1
    x_6_15  D15  1
    x_6_16  COST  20747  S6  1
    x_6_16  D16  1
    x_6_17  COST  780840  S6  1
    x_6_17  D17  1
    x_6_18  COST  373725  S6  1
    x_6_18  D18  1
    x_6_19  COST  991973  S6  1
    x_6_19  D19  1
    x_6_20  COST  595322  S6  1
    x_6_20  D20  1
    x_6_21  COST  680883  S6  1
    x_6_21  D21  1
    x_6_22  COST  853263  S6  1
    x_6_22  D22  1
    x_6_23  COST  570535  S6  1
    x_6_23  D23  1
    x_6_24  COST  931233  S6  1
    x_6_24  D24  1
    x_6_25  COST  697567  S6  1
    x_6_25  D25  1
    x_6_26  COST  271162  S6  1
    x_6_26  D26  1
    x_6_27  COST  814149  S6  1
    x_6_27  D27  1
    x_6_28  COST  334444  S6  1
    x_6_28  D28  1
    x_6_29  COST  376701  S6  1
    x_6_29  D29  1
    x_6_30  COST  355291  S6  1
    x_6_30  D30  1
    x_6_31  COST  205225  S6  1
    x_6_31  D31  1
    x_6_32  COST  362799  S6  1
    x_6_32  D32  1
    x_6_33  COST  960737  S6  1
    x_6_33  D33  1
    x_6_34  COST  678291  S6  1
    x_6_34  D34  1
    x_6_35  COST  88765  S6  1
    x_6_35  D35  1
    x_6_36  COST  19512  S6  1
    x_6_36  D36  1
    x_6_37  COST  247291  S6  1
    x_6_37  D37  1
    x_6_38  COST  415323  S6  1
    x_6_38  D38  1
    x_6_39  COST  67442  S6  1
    x_6_39  D39  1
    x_6_40  COST  967468  S6  1
    x_6_40  D40  1
    x_6_41  COST  797270  S6  1
    x_6_41  D41  1
    x_6_42  COST  662474  S6  1
    x_6_42  D42  1
    x_6_43  COST  447341  S6  1
    x_6_43  D43  1
    x_6_44  COST  508711  S6  1
    x_6_44  D44  1
    x_6_45  COST  828771  S6  1
    x_6_45  D45  1
    x_6_46  COST  155798  S6  1
    x_6_46  D46  1
    x_6_47  COST  811301  S6  1
    x_6_47  D47  1
    x_6_48  COST  378033  S6  1
    x_6_48  D48  1
    x_6_49  COST  131768  S6  1
    x_6_49  D49  1
    x_6_50  COST  541891  S6  1
    x_6_50  D50  1
    x_6_51  COST  967809  S6  1
    x_6_51  D51  1
    x_6_52  COST  953922  S6  1
    x_6_52  D52  1
    x_6_53  COST  571778  S6  1
    x_6_53  D53  1
    x_6_54  COST  380086  S6  1
    x_6_54  D54  1
    x_6_55  COST  977556  S6  1
    x_6_55  D55  1
    x_6_56  COST  421646  S6  1
    x_6_56  D56  1
    x_6_57  COST  185445  S6  1
    x_6_57  D57  1
    x_6_58  COST  246973  S6  1
    x_6_58  D58  1
    x_6_59  COST  984799  S6  1
    x_6_59  D59  1
    x_7_0  COST  230509  S7  1
    x_7_0  D0  1
    x_7_1  COST  126276  S7  1
    x_7_1  D1  1
    x_7_2  COST  380473  S7  1
    x_7_2  D2  1
    x_7_3  COST  330387  S7  1
    x_7_3  D3  1
    x_7_4  COST  333677  S7  1
    x_7_4  D4  1
    x_7_5  COST  51716  S7  1
    x_7_5  D5  1
    x_7_6  COST  433352  S7  1
    x_7_6  D6  1
    x_7_7  COST  338217  S7  1
    x_7_7  D7  1
    x_7_8  COST  460689  S7  1
    x_7_8  D8  1
    x_7_9  COST  317362  S7  1
    x_7_9  D9  1
    x_7_10  COST  37603  S7  1
    x_7_10  D10  1
    x_7_11  COST  953792  S7  1
    x_7_11  D11  1
    x_7_12  COST  724108  S7  1
    x_7_12  D12  1
    x_7_13  COST  52974  S7  1
    x_7_13  D13  1
    x_7_14  COST  610209  S7  1
    x_7_14  D14  1
    x_7_15  COST  232989  S7  1
    x_7_15  D15  1
    x_7_16  COST  970953  S7  1
    x_7_16  D16  1
    x_7_17  COST  790495  S7  1
    x_7_17  D17  1
    x_7_18  COST  973167  S7  1
    x_7_18  D18  1
    x_7_19  COST  27446  S7  1
    x_7_19  D19  1
    x_7_20  COST  88720  S7  1
    x_7_20  D20  1
    x_7_21  COST  208523  S7  1
    x_7_21  D21  1
    x_7_22  COST  305607  S7  1
    x_7_22  D22  1
    x_7_23  COST  541311  S7  1
    x_7_23  D23  1
    x_7_24  COST  335189  S7  1
    x_7_24  D24  1
    x_7_25  COST  323150  S7  1
    x_7_25  D25  1
    x_7_26  COST  966346  S7  1
    x_7_26  D26  1
    x_7_27  COST  515429  S7  1
    x_7_27  D27  1
    x_7_28  COST  547523  S7  1
    x_7_28  D28  1
    x_7_29  COST  481334  S7  1
    x_7_29  D29  1
    x_7_30  COST  773131  S7  1
    x_7_30  D30  1
    x_7_31  COST  588501  S7  1
    x_7_31  D31  1
    x_7_32  COST  324149  S7  1
    x_7_32  D32  1
    x_7_33  COST  410862  S7  1
    x_7_33  D33  1
    x_7_34  COST  257267  S7  1
    x_7_34  D34  1
    x_7_35  COST  299284  S7  1
    x_7_35  D35  1
    x_7_36  COST  139646  S7  1
    x_7_36  D36  1
    x_7_37  COST  94660  S7  1
    x_7_37  D37  1
    x_7_38  COST  984790  S7  1
    x_7_38  D38  1
    x_7_39  COST  572752  S7  1
    x_7_39  D39  1
    x_7_40  COST  643666  S7  1
    x_7_40  D40  1
    x_7_41  COST  629653  S7  1
    x_7_41  D41  1
    x_7_42  COST  929841  S7  1
    x_7_42  D42  1
    x_7_43  COST  210194  S7  1
    x_7_43  D43  1
    x_7_44  COST  889471  S7  1
    x_7_44  D44  1
    x_7_45  COST  952975  S7  1
    x_7_45  D45  1
    x_7_46  COST  335538  S7  1
    x_7_46  D46  1
    x_7_47  COST  248084  S7  1
    x_7_47  D47  1
    x_7_48  COST  790638  S7  1
    x_7_48  D48  1
    x_7_49  COST  202005  S7  1
    x_7_49  D49  1
    x_7_50  COST  814423  S7  1
    x_7_50  D50  1
    x_7_51  COST  825811  S7  1
    x_7_51  D51  1
    x_7_52  COST  107054  S7  1
    x_7_52  D52  1
    x_7_53  COST  14217  S7  1
    x_7_53  D53  1
    x_7_54  COST  673988  S7  1
    x_7_54  D54  1
    x_7_55  COST  97554  S7  1
    x_7_55  D55  1
    x_7_56  COST  846713  S7  1
    x_7_56  D56  1
    x_7_57  COST  510010  S7  1
    x_7_57  D57  1
    x_7_58  COST  961445  S7  1
    x_7_58  D58  1
    x_7_59  COST  61486  S7  1
    x_7_59  D59  1
    x_8_0  COST  778285  S8  1
    x_8_0  D0  1
    x_8_1  COST  40896  S8  1
    x_8_1  D1  1
    x_8_2  COST  478496  S8  1
    x_8_2  D2  1
    x_8_3  COST  52493  S8  1
    x_8_3  D3  1
    x_8_4  COST  831695  S8  1
    x_8_4  D4  1
    x_8_5  COST  297602  S8  1
    x_8_5  D5  1
    x_8_6  COST  55594  S8  1
    x_8_6  D6  1
    x_8_7  COST  973445  S8  1
    x_8_7  D7  1
    x_8_8  COST  992732  S8  1
    x_8_8  D8  1
    x_8_9  COST  753546  S8  1
    x_8_9  D9  1
    x_8_10  COST  741618  S8  1
    x_8_10  D10  1
    x_8_11  COST  979757  S8  1
    x_8_11  D11  1
    x_8_12  COST  633561  S8  1
    x_8_12  D12  1
    x_8_13  COST  888863  S8  1
    x_8_13  D13  1
    x_8_14  COST  144353  S8  1
    x_8_14  D14  1
    x_8_15  COST  479721  S8  1
    x_8_15  D15  1
    x_8_16  COST  59340  S8  1
    x_8_16  D16  1
    x_8_17  COST  384184  S8  1
    x_8_17  D17  1
    x_8_18  COST  578584  S8  1
    x_8_18  D18  1
    x_8_19  COST  340090  S8  1
    x_8_19  D19  1
    x_8_20  COST  65893  S8  1
    x_8_20  D20  1
    x_8_21  COST  622395  S8  1
    x_8_21  D21  1
    x_8_22  COST  743320  S8  1
    x_8_22  D22  1
    x_8_23  COST  139871  S8  1
    x_8_23  D23  1
    x_8_24  COST  222622  S8  1
    x_8_24  D24  1
    x_8_25  COST  897862  S8  1
    x_8_25  D25  1
    x_8_26  COST  978716  S8  1
    x_8_26  D26  1
    x_8_27  COST  414761  S8  1
    x_8_27  D27  1
    x_8_28  COST  360582  S8  1
    x_8_28  D28  1
    x_8_29  COST  787143  S8  1
    x_8_29  D29  1
    x_8_30  COST  573402  S8  1
    x_8_30  D30  1
    x_8_31  COST  561058  S8  1
    x_8_31  D31  1
    x_8_32  COST  150451  S8  1
    x_8_32  D32  1
    x_8_33  COST  473274  S8  1
    x_8_33  D33  1
    x_8_34  COST  264713  S8  1
    x_8_34  D34  1
    x_8_35  COST  890270  S8  1
    x_8_35  D35  1
    x_8_36  COST  325978  S8  1
    x_8_36  D36  1
    x_8_37  COST  264494  S8  1
    x_8_37  D37  1
    x_8_38  COST  621775  S8  1
    x_8_38  D38  1
    x_8_39  COST  578999  S8  1
    x_8_39  D39  1
    x_8_40  COST  887838  S8  1
    x_8_40  D40  1
    x_8_41  COST  635858  S8  1
    x_8_41  D41  1
    x_8_42  COST  807341  S8  1
    x_8_42  D42  1
    x_8_43  COST  909494  S8  1
    x_8_43  D43  1
    x_8_44  COST  738363  S8  1
    x_8_44  D44  1
    x_8_45  COST  735195  S8  1
    x_8_45  D45  1
    x_8_46  COST  609413  S8  1
    x_8_46  D46  1
    x_8_47  COST  840869  S8  1
    x_8_47  D47  1
    x_8_48  COST  604654  S8  1
    x_8_48  D48  1
    x_8_49  COST  691339  S8  1
    x_8_49  D49  1
    x_8_50  COST  87866  S8  1
    x_8_50  D50  1
    x_8_51  COST  182685  S8  1
    x_8_51  D51  1
    x_8_52  COST  211734  S8  1
    x_8_52  D52  1
    x_8_53  COST  185505  S8  1
    x_8_53  D53  1
    x_8_54  COST  485712  S8  1
    x_8_54  D54  1
    x_8_55  COST  518055  S8  1
    x_8_55  D55  1
    x_8_56  COST  987470  S8  1
    x_8_56  D56  1
    x_8_57  COST  865269  S8  1
    x_8_57  D57  1
    x_8_58  COST  761742  S8  1
    x_8_58  D58  1
    x_8_59  COST  236650  S8  1
    x_8_59  D59  1
    x_9_0  COST  330528  S9  1
    x_9_0  D0  1
    x_9_1  COST  130412  S9  1
    x_9_1  D1  1
    x_9_2  COST  47671  S9  1
    x_9_2  D2  1
    x_9_3  COST  897339  S9  1
    x_9_3  D3  1
    x_9_4  COST  892290  S9  1
    x_9_4  D4  1
    x_9_5  COST  344416  S9  1
    x_9_5  D5  1
    x_9_6  COST  658651  S9  1
    x_9_6  D6  1
    x_9_7  COST  903852  S9  1
    x_9_7  D7  1
    x_9_8  COST  140771  S9  1
    x_9_8  D8  1
    x_9_9  COST  499996  S9  1
    x_9_9  D9  1
    x_9_10  COST  994276  S9  1
    x_9_10  D10  1
    x_9_11  COST  152350  S9  1
    x_9_11  D11  1
    x_9_12  COST  837704  S9  1
    x_9_12  D12  1
    x_9_13  COST  587802  S9  1
    x_9_13  D13  1
    x_9_14  COST  613739  S9  1
    x_9_14  D14  1
    x_9_15  COST  349389  S9  1
    x_9_15  D15  1
    x_9_16  COST  923638  S9  1
    x_9_16  D16  1
    x_9_17  COST  150974  S9  1
    x_9_17  D17  1
    x_9_18  COST  74145  S9  1
    x_9_18  D18  1
    x_9_19  COST  55687  S9  1
    x_9_19  D19  1
    x_9_20  COST  175390  S9  1
    x_9_20  D20  1
    x_9_21  COST  735979  S9  1
    x_9_21  D21  1
    x_9_22  COST  987920  S9  1
    x_9_22  D22  1
    x_9_23  COST  133872  S9  1
    x_9_23  D23  1
    x_9_24  COST  833262  S9  1
    x_9_24  D24  1
    x_9_25  COST  784359  S9  1
    x_9_25  D25  1
    x_9_26  COST  667869  S9  1
    x_9_26  D26  1
    x_9_27  COST  482716  S9  1
    x_9_27  D27  1
    x_9_28  COST  252690  S9  1
    x_9_28  D28  1
    x_9_29  COST  642039  S9  1
    x_9_29  D29  1
    x_9_30  COST  943722  S9  1
    x_9_30  D30  1
    x_9_31  COST  893141  S9  1
    x_9_31  D31  1
    x_9_32  COST  368997  S9  1
    x_9_32  D32  1
    x_9_33  COST  906603  S9  1
    x_9_33  D33  1
    x_9_34  COST  332641  S9  1
    x_9_34  D34  1
    x_9_35  COST  580773  S9  1
    x_9_35  D35  1
    x_9_36  COST  46149  S9  1
    x_9_36  D36  1
    x_9_37  COST  368133  S9  1
    x_9_37  D37  1
    x_9_38  COST  715849  S9  1
    x_9_38  D38  1
    x_9_39  COST  218062  S9  1
    x_9_39  D39  1
    x_9_40  COST  127462  S9  1
    x_9_40  D40  1
    x_9_41  COST  445846  S9  1
    x_9_41  D41  1
    x_9_42  COST  728286  S9  1
    x_9_42  D42  1
    x_9_43  COST  424907  S9  1
    x_9_43  D43  1
    x_9_44  COST  214850  S9  1
    x_9_44  D44  1
    x_9_45  COST  756173  S9  1
    x_9_45  D45  1
    x_9_46  COST  574220  S9  1
    x_9_46  D46  1
    x_9_47  COST  181551  S9  1
    x_9_47  D47  1
    x_9_48  COST  173774  S9  1
    x_9_48  D48  1
    x_9_49  COST  546317  S9  1
    x_9_49  D49  1
    x_9_50  COST  584760  S9  1
    x_9_50  D50  1
    x_9_51  COST  139666  S9  1
    x_9_51  D51  1
    x_9_52  COST  851382  S9  1
    x_9_52  D52  1
    x_9_53  COST  769955  S9  1
    x_9_53  D53  1
    x_9_54  COST  543507  S9  1
    x_9_54  D54  1
    x_9_55  COST  105745  S9  1
    x_9_55  D55  1
    x_9_56  COST  510042  S9  1
    x_9_56  D56  1
    x_9_57  COST  344966  S9  1
    x_9_57  D57  1
    x_9_58  COST  418416  S9  1
    x_9_58  D58  1
    x_9_59  COST  78698  S9  1
    x_9_59  D59  1
    x_10_0  COST  137696  S10  1
    x_10_0  D0  1
    x_10_1  COST  470337  S10  1
    x_10_1  D1  1
    x_10_2  COST  898854  S10  1
    x_10_2  D2  1
    x_10_3  COST  148428  S10  1
    x_10_3  D3  1
    x_10_4  COST  179998  S10  1
    x_10_4  D4  1
    x_10_5  COST  793081  S10  1
    x_10_5  D5  1
    x_10_6  COST  940913  S10  1
    x_10_6  D6  1
    x_10_7  COST  663315  S10  1
    x_10_7  D7  1
    x_10_8  COST  833260  S10  1
    x_10_8  D8  1
    x_10_9  COST  240374  S10  1
    x_10_9  D9  1
    x_10_10  COST  734491  S10  1
    x_10_10  D10  1
    x_10_11  COST  164266  S10  1
    x_10_11  D11  1
    x_10_12  COST  706938  S10  1
    x_10_12  D12  1
    x_10_13  COST  158851  S10  1
    x_10_13  D13  1
    x_10_14  COST  310568  S10  1
    x_10_14  D14  1
    x_10_15  COST  553520  S10  1
    x_10_15  D15  1
    x_10_16  COST  18729  S10  1
    x_10_16  D16  1
    x_10_17  COST  686812  S10  1
    x_10_17  D17  1
    x_10_18  COST  961587  S10  1
    x_10_18  D18  1
    x_10_19  COST  199769  S10  1
    x_10_19  D19  1
    x_10_20  COST  91232  S10  1
    x_10_20  D20  1
    x_10_21  COST  42659  S10  1
    x_10_21  D21  1
    x_10_22  COST  33248  S10  1
    x_10_22  D22  1
    x_10_23  COST  73025  S10  1
    x_10_23  D23  1
    x_10_24  COST  554128  S10  1
    x_10_24  D24  1
    x_10_25  COST  513009  S10  1
    x_10_25  D25  1
    x_10_26  COST  752667  S10  1
    x_10_26  D26  1
    x_10_27  COST  80026  S10  1
    x_10_27  D27  1
    x_10_28  COST  367284  S10  1
    x_10_28  D28  1
    x_10_29  COST  733359  S10  1
    x_10_29  D29  1
    x_10_30  COST  998785  S10  1
    x_10_30  D30  1
    x_10_31  COST  98557  S10  1
    x_10_31  D31  1
    x_10_32  COST  151794  S10  1
    x_10_32  D32  1
    x_10_33  COST  638459  S10  1
    x_10_33  D33  1
    x_10_34  COST  713017  S10  1
    x_10_34  D34  1
    x_10_35  COST  484440  S10  1
    x_10_35  D35  1
    x_10_36  COST  868470  S10  1
    x_10_36  D36  1
    x_10_37  COST  39869  S10  1
    x_10_37  D37  1
    x_10_38  COST  921074  S10  1
    x_10_38  D38  1
    x_10_39  COST  973847  S10  1
    x_10_39  D39  1
    x_10_40  COST  432404  S10  1
    x_10_40  D40  1
    x_10_41  COST  624311  S10  1
    x_10_41  D41  1
    x_10_42  COST  528424  S10  1
    x_10_42  D42  1
    x_10_43  COST  400283  S10  1
    x_10_43  D43  1
    x_10_44  COST  198852  S10  1
    x_10_44  D44  1
    x_10_45  COST  965373  S10  1
    x_10_45  D45  1
    x_10_46  COST  227396  S10  1
    x_10_46  D46  1
    x_10_47  COST  467867  S10  1
    x_10_47  D47  1
    x_10_48  COST  147126  S10  1
    x_10_48  D48  1
    x_10_49  COST  645520  S10  1
    x_10_49  D49  1
    x_10_50  COST  38875  S10  1
    x_10_50  D50  1
    x_10_51  COST  336206  S10  1
    x_10_51  D51  1
    x_10_52  COST  431025  S10  1
    x_10_52  D52  1
    x_10_53  COST  222964  S10  1
    x_10_53  D53  1
    x_10_54  COST  400909  S10  1
    x_10_54  D54  1
    x_10_55  COST  507248  S10  1
    x_10_55  D55  1
    x_10_56  COST  860524  S10  1
    x_10_56  D56  1
    x_10_57  COST  121871  S10  1
    x_10_57  D57  1
    x_10_58  COST  432082  S10  1
    x_10_58  D58  1
    x_10_59  COST  119426  S10  1
    x_10_59  D59  1
    x_11_0  COST  83729  S11  1
    x_11_0  D0  1
    x_11_1  COST  549332  S11  1
    x_11_1  D1  1
    x_11_2  COST  405720  S11  1
    x_11_2  D2  1
    x_11_3  COST  648787  S11  1
    x_11_3  D3  1
    x_11_4  COST  989631  S11  1
    x_11_4  D4  1
    x_11_5  COST  146361  S11  1
    x_11_5  D5  1
    x_11_6  COST  759901  S11  1
    x_11_6  D6  1
    x_11_7  COST  536072  S11  1
    x_11_7  D7  1
    x_11_8  COST  871645  S11  1
    x_11_8  D8  1
    x_11_9  COST  898268  S11  1
    x_11_9  D9  1
    x_11_10  COST  898895  S11  1
    x_11_10  D10  1
    x_11_11  COST  45311  S11  1
    x_11_11  D11  1
    x_11_12  COST  510925  S11  1
    x_11_12  D12  1
    x_11_13  COST  44594  S11  1
    x_11_13  D13  1
    x_11_14  COST  717488  S11  1
    x_11_14  D14  1
    x_11_15  COST  986555  S11  1
    x_11_15  D15  1
    x_11_16  COST  36244  S11  1
    x_11_16  D16  1
    x_11_17  COST  327544  S11  1
    x_11_17  D17  1
    x_11_18  COST  833200  S11  1
    x_11_18  D18  1
    x_11_19  COST  414900  S11  1
    x_11_19  D19  1
    x_11_20  COST  513018  S11  1
    x_11_20  D20  1
    x_11_21  COST  774907  S11  1
    x_11_21  D21  1
    x_11_22  COST  203076  S11  1
    x_11_22  D22  1
    x_11_23  COST  677364  S11  1
    x_11_23  D23  1
    x_11_24  COST  621221  S11  1
    x_11_24  D24  1
    x_11_25  COST  23785  S11  1
    x_11_25  D25  1
    x_11_26  COST  481157  S11  1
    x_11_26  D26  1
    x_11_27  COST  291763  S11  1
    x_11_27  D27  1
    x_11_28  COST  199128  S11  1
    x_11_28  D28  1
    x_11_29  COST  25870  S11  1
    x_11_29  D29  1
    x_11_30  COST  55061  S11  1
    x_11_30  D30  1
    x_11_31  COST  284041  S11  1
    x_11_31  D31  1
    x_11_32  COST  98465  S11  1
    x_11_32  D32  1
    x_11_33  COST  397077  S11  1
    x_11_33  D33  1
    x_11_34  COST  219582  S11  1
    x_11_34  D34  1
    x_11_35  COST  394635  S11  1
    x_11_35  D35  1
    x_11_36  COST  640890  S11  1
    x_11_36  D36  1
    x_11_37  COST  56664  S11  1
    x_11_37  D37  1
    x_11_38  COST  638075  S11  1
    x_11_38  D38  1
    x_11_39  COST  217420  S11  1
    x_11_39  D39  1
    x_11_40  COST  200286  S11  1
    x_11_40  D40  1
    x_11_41  COST  161230  S11  1
    x_11_41  D41  1
    x_11_42  COST  318647  S11  1
    x_11_42  D42  1
    x_11_43  COST  507234  S11  1
    x_11_43  D43  1
    x_11_44  COST  882357  S11  1
    x_11_44  D44  1
    x_11_45  COST  888342  S11  1
    x_11_45  D45  1
    x_11_46  COST  764180  S11  1
    x_11_46  D46  1
    x_11_47  COST  84412  S11  1
    x_11_47  D47  1
    x_11_48  COST  213625  S11  1
    x_11_48  D48  1
    x_11_49  COST  909022  S11  1
    x_11_49  D49  1
    x_11_50  COST  113691  S11  1
    x_11_50  D50  1
    x_11_51  COST  328440  S11  1
    x_11_51  D51  1
    x_11_52  COST  456131  S11  1
    x_11_52  D52  1
    x_11_53  COST  427468  S11  1
    x_11_53  D53  1
    x_11_54  COST  732560  S11  1
    x_11_54  D54  1
    x_11_55  COST  631142  S11  1
    x_11_55  D55  1
    x_11_56  COST  398792  S11  1
    x_11_56  D56  1
    x_11_57  COST  205027  S11  1
    x_11_57  D57  1
    x_11_58  COST  365921  S11  1
    x_11_58  D58  1
    x_11_59  COST  503063  S11  1
    x_11_59  D59  1
    x_12_0  COST  501444  S12  1
    x_12_0  D0  1
    x_12_1  COST  545662  S12  1
    x_12_1  D1  1
    x_12_2  COST  454567  S12  1
    x_12_2  D2  1
    x_12_3  COST  90688  S12  1
    x_12_3  D3  1
    x_12_4  COST  365779  S12  1
    x_12_4  D4  1
    x_12_5  COST  35320  S12  1
    x_12_5  D5  1
    x_12_6  COST  636473  S12  1
    x_12_6  D6  1
    x_12_7  COST  661449  S12  1
    x_12_7  D7  1
    x_12_8  COST  305118  S12  1
    x_12_8  D8  1
    x_12_9  COST  375809  S12  1
    x_12_9  D9  1
    x_12_10  COST  64722  S12  1
    x_12_10  D10  1
    x_12_11  COST  854110  S12  1
    x_12_11  D11  1
    x_12_12  COST  219683  S12  1
    x_12_12  D12  1
    x_12_13  COST  663264  S12  1
    x_12_13  D13  1
    x_12_14  COST  603229  S12  1
    x_12_14  D14  1
    x_12_15  COST  365303  S12  1
    x_12_15  D15  1
    x_12_16  COST  528245  S12  1
    x_12_16  D16  1
    x_12_17  COST  817232  S12  1
    x_12_17  D17  1
    x_12_18  COST  763798  S12  1
    x_12_18  D18  1
    x_12_19  COST  55769  S12  1
    x_12_19  D19  1
    x_12_20  COST  815676  S12  1
    x_12_20  D20  1
    x_12_21  COST  415758  S12  1
    x_12_21  D21  1
    x_12_22  COST  834974  S12  1
    x_12_22  D22  1
    x_12_23  COST  411233  S12  1
    x_12_23  D23  1
    x_12_24  COST  420435  S12  1
    x_12_24  D24  1
    x_12_25  COST  871638  S12  1
    x_12_25  D25  1
    x_12_26  COST  679163  S12  1
    x_12_26  D26  1
    x_12_27  COST  361239  S12  1
    x_12_27  D27  1
    x_12_28  COST  974167  S12  1
    x_12_28  D28  1
    x_12_29  COST  159935  S12  1
    x_12_29  D29  1
    x_12_30  COST  223412  S12  1
    x_12_30  D30  1
    x_12_31  COST  765852  S12  1
    x_12_31  D31  1
    x_12_32  COST  216782  S12  1
    x_12_32  D32  1
    x_12_33  COST  512838  S12  1
    x_12_33  D33  1
    x_12_34  COST  839663  S12  1
    x_12_34  D34  1
    x_12_35  COST  524281  S12  1
    x_12_35  D35  1
    x_12_36  COST  340091  S12  1
    x_12_36  D36  1
    x_12_37  COST  848286  S12  1
    x_12_37  D37  1
    x_12_38  COST  819661  S12  1
    x_12_38  D38  1
    x_12_39  COST  170903  S12  1
    x_12_39  D39  1
    x_12_40  COST  378395  S12  1
    x_12_40  D40  1
    x_12_41  COST  157988  S12  1
    x_12_41  D41  1
    x_12_42  COST  472478  S12  1
    x_12_42  D42  1
    x_12_43  COST  111992  S12  1
    x_12_43  D43  1
    x_12_44  COST  989848  S12  1
    x_12_44  D44  1
    x_12_45  COST  606570  S12  1
    x_12_45  D45  1
    x_12_46  COST  76656  S12  1
    x_12_46  D46  1
    x_12_47  COST  288251  S12  1
    x_12_47  D47  1
    x_12_48  COST  370792  S12  1
    x_12_48  D48  1
    x_12_49  COST  910920  S12  1
    x_12_49  D49  1
    x_12_50  COST  764985  S12  1
    x_12_50  D50  1
    x_12_51  COST  17458  S12  1
    x_12_51  D51  1
    x_12_52  COST  320376  S12  1
    x_12_52  D52  1
    x_12_53  COST  441470  S12  1
    x_12_53  D53  1
    x_12_54  COST  138403  S12  1
    x_12_54  D54  1
    x_12_55  COST  681300  S12  1
    x_12_55  D55  1
    x_12_56  COST  524899  S12  1
    x_12_56  D56  1
    x_12_57  COST  244421  S12  1
    x_12_57  D57  1
    x_12_58  COST  939621  S12  1
    x_12_58  D58  1
    x_12_59  COST  453100  S12  1
    x_12_59  D59  1
    x_13_0  COST  274267  S13  1
    x_13_0  D0  1
    x_13_1  COST  816934  S13  1
    x_13_1  D1  1
    x_13_2  COST  553542  S13  1
    x_13_2  D2  1
    x_13_3  COST  887830  S13  1
    x_13_3  D3  1
    x_13_4  COST  732138  S13  1
    x_13_4  D4  1
    x_13_5  COST  999430  S13  1
    x_13_5  D5  1
    x_13_6  COST  307150  S13  1
    x_13_6  D6  1
    x_13_7  COST  463446  S13  1
    x_13_7  D7  1
    x_13_8  COST  795798  S13  1
    x_13_8  D8  1
    x_13_9  COST  58870  S13  1
    x_13_9  D9  1
    x_13_10  COST  277794  S13  1
    x_13_10  D10  1
    x_13_11  COST  983222  S13  1
    x_13_11  D11  1
    x_13_12  COST  218972  S13  1
    x_13_12  D12  1
    x_13_13  COST  847981  S13  1
    x_13_13  D13  1
    x_13_14  COST  659889  S13  1
    x_13_14  D14  1
    x_13_15  COST  531338  S13  1
    x_13_15  D15  1
    x_13_16  COST  514490  S13  1
    x_13_16  D16  1
    x_13_17  COST  734295  S13  1
    x_13_17  D17  1
    x_13_18  COST  810230  S13  1
    x_13_18  D18  1
    x_13_19  COST  474311  S13  1
    x_13_19  D19  1
    x_13_20  COST  687634  S13  1
    x_13_20  D20  1
    x_13_21  COST  102056  S13  1
    x_13_21  D21  1
    x_13_22  COST  133818  S13  1
    x_13_22  D22  1
    x_13_23  COST  269548  S13  1
    x_13_23  D23  1
    x_13_24  COST  401495  S13  1
    x_13_24  D24  1
    x_13_25  COST  367526  S13  1
    x_13_25  D25  1
    x_13_26  COST  586198  S13  1
    x_13_26  D26  1
    x_13_27  COST  453171  S13  1
    x_13_27  D27  1
    x_13_28  COST  667239  S13  1
    x_13_28  D28  1
    x_13_29  COST  953994  S13  1
    x_13_29  D29  1
    x_13_30  COST  4875  S13  1
    x_13_30  D30  1
    x_13_31  COST  867275  S13  1
    x_13_31  D31  1
    x_13_32  COST  424680  S13  1
    x_13_32  D32  1
    x_13_33  COST  342783  S13  1
    x_13_33  D33  1
    x_13_34  COST  678973  S13  1
    x_13_34  D34  1
    x_13_35  COST  429557  S13  1
    x_13_35  D35  1
    x_13_36  COST  763894  S13  1
    x_13_36  D36  1
    x_13_37  COST  777540  S13  1
    x_13_37  D37  1
    x_13_38  COST  22599  S13  1
    x_13_38  D38  1
    x_13_39  COST  948873  S13  1
    x_13_39  D39  1
    x_13_40  COST  989460  S13  1
    x_13_40  D40  1
    x_13_41  COST  176011  S13  1
    x_13_41  D41  1
    x_13_42  COST  904374  S13  1
    x_13_42  D42  1
    x_13_43  COST  859994  S13  1
    x_13_43  D43  1
    x_13_44  COST  842843  S13  1
    x_13_44  D44  1
    x_13_45  COST  295363  S13  1
    x_13_45  D45  1
    x_13_46  COST  584945  S13  1
    x_13_46  D46  1
    x_13_47  COST  346160  S13  1
    x_13_47  D47  1
    x_13_48  COST  53399  S13  1
    x_13_48  D48  1
    x_13_49  COST  737016  S13  1
    x_13_49  D49  1
    x_13_50  COST  209068  S13  1
    x_13_50  D50  1
    x_13_51  COST  594487  S13  1
    x_13_51  D51  1
    x_13_52  COST  225338  S13  1
    x_13_52  D52  1
    x_13_53  COST  869717  S13  1
    x_13_53  D53  1
    x_13_54  COST  478420  S13  1
    x_13_54  D54  1
    x_13_55  COST  821511  S13  1
    x_13_55  D55  1
    x_13_56  COST  188228  S13  1
    x_13_56  D56  1
    x_13_57  COST  691153  S13  1
    x_13_57  D57  1
    x_13_58  COST  367249  S13  1
    x_13_58  D58  1
    x_13_59  COST  534409  S13  1
    x_13_59  D59  1
    x_14_0  COST  444897  S14  1
    x_14_0  D0  1
    x_14_1  COST  832207  S14  1
    x_14_1  D1  1
    x_14_2  COST  815151  S14  1
    x_14_2  D2  1
    x_14_3  COST  985641  S14  1
    x_14_3  D3  1
    x_14_4  COST  383633  S14  1
    x_14_4  D4  1
    x_14_5  COST  895798  S14  1
    x_14_5  D5  1
    x_14_6  COST  197396  S14  1
    x_14_6  D6  1
    x_14_7  COST  150664  S14  1
    x_14_7  D7  1
    x_14_8  COST  328887  S14  1
    x_14_8  D8  1
    x_14_9  COST  586844  S14  1
    x_14_9  D9  1
    x_14_10  COST  518312  S14  1
    x_14_10  D10  1
    x_14_11  COST  182625  S14  1
    x_14_11  D11  1
    x_14_12  COST  106149  S14  1
    x_14_12  D12  1
    x_14_13  COST  996307  S14  1
    x_14_13  D13  1
    x_14_14  COST  887823  S14  1
    x_14_14  D14  1
    x_14_15  COST  279070  S14  1
    x_14_15  D15  1
    x_14_16  COST  650336  S14  1
    x_14_16  D16  1
    x_14_17  COST  696448  S14  1
    x_14_17  D17  1
    x_14_18  COST  547368  S14  1
    x_14_18  D18  1
    x_14_19  COST  975835  S14  1
    x_14_19  D19  1
    x_14_20  COST  79695  S14  1
    x_14_20  D20  1
    x_14_21  COST  89891  S14  1
    x_14_21  D21  1
    x_14_22  COST  609261  S14  1
    x_14_22  D22  1
    x_14_23  COST  763186  S14  1
    x_14_23  D23  1
    x_14_24  COST  232433  S14  1
    x_14_24  D24  1
    x_14_25  COST  539822  S14  1
    x_14_25  D25  1
    x_14_26  COST  470298  S14  1
    x_14_26  D26  1
    x_14_27  COST  296373  S14  1
    x_14_27  D27  1
    x_14_28  COST  80160  S14  1
    x_14_28  D28  1
    x_14_29  COST  952190  S14  1
    x_14_29  D29  1
    x_14_30  COST  50038  S14  1
    x_14_30  D30  1
    x_14_31  COST  67814  S14  1
    x_14_31  D31  1
    x_14_32  COST  549517  S14  1
    x_14_32  D32  1
    x_14_33  COST  181985  S14  1
    x_14_33  D33  1
    x_14_34  COST  305748  S14  1
    x_14_34  D34  1
    x_14_35  COST  5610  S14  1
    x_14_35  D35  1
    x_14_36  COST  461299  S14  1
    x_14_36  D36  1
    x_14_37  COST  832855  S14  1
    x_14_37  D37  1
    x_14_38  COST  439536  S14  1
    x_14_38  D38  1
    x_14_39  COST  291060  S14  1
    x_14_39  D39  1
    x_14_40  COST  27616  S14  1
    x_14_40  D40  1
    x_14_41  COST  218661  S14  1
    x_14_41  D41  1
    x_14_42  COST  229117  S14  1
    x_14_42  D42  1
    x_14_43  COST  957893  S14  1
    x_14_43  D43  1
    x_14_44  COST  538738  S14  1
    x_14_44  D44  1
    x_14_45  COST  703204  S14  1
    x_14_45  D45  1
    x_14_46  COST  307539  S14  1
    x_14_46  D46  1
    x_14_47  COST  891629  S14  1
    x_14_47  D47  1
    x_14_48  COST  837307  S14  1
    x_14_48  D48  1
    x_14_49  COST  285922  S14  1
    x_14_49  D49  1
    x_14_50  COST  591323  S14  1
    x_14_50  D50  1
    x_14_51  COST  479365  S14  1
    x_14_51  D51  1
    x_14_52  COST  706741  S14  1
    x_14_52  D52  1
    x_14_53  COST  200314  S14  1
    x_14_53  D53  1
    x_14_54  COST  583131  S14  1
    x_14_54  D54  1
    x_14_55  COST  417940  S14  1
    x_14_55  D55  1
    x_14_56  COST  852966  S14  1
    x_14_56  D56  1
    x_14_57  COST  403686  S14  1
    x_14_57  D57  1
    x_14_58  COST  221027  S14  1
    x_14_58  D58  1
    x_14_59  COST  951893  S14  1
    x_14_59  D59  1
    x_15_0  COST  177934  S15  1
    x_15_0  D0  1
    x_15_1  COST  899196  S15  1
    x_15_1  D1  1
    x_15_2  COST  55937  S15  1
    x_15_2  D2  1
    x_15_3  COST  295370  S15  1
    x_15_3  D3  1
    x_15_4  COST  516302  S15  1
    x_15_4  D4  1
    x_15_5  COST  644605  S15  1
    x_15_5  D5  1
    x_15_6  COST  423437  S15  1
    x_15_6  D6  1
    x_15_7  COST  711919  S15  1
    x_15_7  D7  1
    x_15_8  COST  250430  S15  1
    x_15_8  D8  1
    x_15_9  COST  305684  S15  1
    x_15_9  D9  1
    x_15_10  COST  780579  S15  1
    x_15_10  D10  1
    x_15_11  COST  351821  S15  1
    x_15_11  D11  1
    x_15_12  COST  855240  S15  1
    x_15_12  D12  1
    x_15_13  COST  945265  S15  1
    x_15_13  D13  1
    x_15_14  COST  84881  S15  1
    x_15_14  D14  1
    x_15_15  COST  923650  S15  1
    x_15_15  D15  1
    x_15_16  COST  158569  S15  1
    x_15_16  D16  1
    x_15_17  COST  930689  S15  1
    x_15_17  D17  1
    x_15_18  COST  967684  S15  1
    x_15_18  D18  1
    x_15_19  COST  516255  S15  1
    x_15_19  D19  1
    x_15_20  COST  178164  S15  1
    x_15_20  D20  1
    x_15_21  COST  966092  S15  1
    x_15_21  D21  1
    x_15_22  COST  473414  S15  1
    x_15_22  D22  1
    x_15_23  COST  815771  S15  1
    x_15_23  D23  1
    x_15_24  COST  354824  S15  1
    x_15_24  D24  1
    x_15_25  COST  797519  S15  1
    x_15_25  D25  1
    x_15_26  COST  381414  S15  1
    x_15_26  D26  1
    x_15_27  COST  634772  S15  1
    x_15_27  D27  1
    x_15_28  COST  163549  S15  1
    x_15_28  D28  1
    x_15_29  COST  304292  S15  1
    x_15_29  D29  1
    x_15_30  COST  358484  S15  1
    x_15_30  D30  1
    x_15_31  COST  335094  S15  1
    x_15_31  D31  1
    x_15_32  COST  70284  S15  1
    x_15_32  D32  1
    x_15_33  COST  347809  S15  1
    x_15_33  D33  1
    x_15_34  COST  620778  S15  1
    x_15_34  D34  1
    x_15_35  COST  116538  S15  1
    x_15_35  D35  1
    x_15_36  COST  181392  S15  1
    x_15_36  D36  1
    x_15_37  COST  134629  S15  1
    x_15_37  D37  1
    x_15_38  COST  416468  S15  1
    x_15_38  D38  1
    x_15_39  COST  8145  S15  1
    x_15_39  D39  1
    x_15_40  COST  432434  S15  1
    x_15_40  D40  1
    x_15_41  COST  17408  S15  1
    x_15_41  D41  1
    x_15_42  COST  436588  S15  1
    x_15_42  D42  1
    x_15_43  COST  776790  S15  1
    x_15_43  D43  1
    x_15_44  COST  748491  S15  1
    x_15_44  D44  1
    x_15_45  COST  532741  S15  1
    x_15_45  D45  1
    x_15_46  COST  775696  S15  1
    x_15_46  D46  1
    x_15_47  COST  834324  S15  1
    x_15_47  D47  1
    x_15_48  COST  868643  S15  1
    x_15_48  D48  1
    x_15_49  COST  673326  S15  1
    x_15_49  D49  1
    x_15_50  COST  604812  S15  1
    x_15_50  D50  1
    x_15_51  COST  233073  S15  1
    x_15_51  D51  1
    x_15_52  COST  28531  S15  1
    x_15_52  D52  1
    x_15_53  COST  927077  S15  1
    x_15_53  D53  1
    x_15_54  COST  36886  S15  1
    x_15_54  D54  1
    x_15_55  COST  483578  S15  1
    x_15_55  D55  1
    x_15_56  COST  385732  S15  1
    x_15_56  D56  1
    x_15_57  COST  582526  S15  1
    x_15_57  D57  1
    x_15_58  COST  428250  S15  1
    x_15_58  D58  1
    x_15_59  COST  345013  S15  1
    x_15_59  D59  1
    x_16_0  COST  673068  S16  1
    x_16_0  D0  1
    x_16_1  COST  844598  S16  1
    x_16_1  D1  1
    x_16_2  COST  52739  S16  1
    x_16_2  D2  1
    x_16_3  COST  30027  S16  1
    x_16_3  D3  1
    x_16_4  COST  985171  S16  1
    x_16_4  D4  1
    x_16_5  COST  498134  S16  1
    x_16_5  D5  1
    x_16_6  COST  572689  S16  1
    x_16_6  D6  1
    x_16_7  COST  246066  S16  1
    x_16_7  D7  1
    x_16_8  COST  146929  S16  1
    x_16_8  D8  1
    x_16_9  COST  980881  S16  1
    x_16_9  D9  1
    x_16_10  COST  405495  S16  1
    x_16_10  D10  1
    x_16_11  COST  220104  S16  1
    x_16_11  D11  1
    x_16_12  COST  76186  S16  1
    x_16_12  D12  1
    x_16_13  COST  776900  S16  1
    x_16_13  D13  1
    x_16_14  COST  703771  S16  1
    x_16_14  D14  1
    x_16_15  COST  642054  S16  1
    x_16_15  D15  1
    x_16_16  COST  624903  S16  1
    x_16_16  D16  1
    x_16_17  COST  241709  S16  1
    x_16_17  D17  1
    x_16_18  COST  983482  S16  1
    x_16_18  D18  1
    x_16_19  COST  957953  S16  1
    x_16_19  D19  1
    x_16_20  COST  208083  S16  1
    x_16_20  D20  1
    x_16_21  COST  100048  S16  1
    x_16_21  D21  1
    x_16_22  COST  958230  S16  1
    x_16_22  D22  1
    x_16_23  COST  229388  S16  1
    x_16_23  D23  1
    x_16_24  COST  112743  S16  1
    x_16_24  D24  1
    x_16_25  COST  103097  S16  1
    x_16_25  D25  1
    x_16_26  COST  56734  S16  1
    x_16_26  D26  1
    x_16_27  COST  608236  S16  1
    x_16_27  D27  1
    x_16_28  COST  531137  S16  1
    x_16_28  D28  1
    x_16_29  COST  63298  S16  1
    x_16_29  D29  1
    x_16_30  COST  894918  S16  1
    x_16_30  D30  1
    x_16_31  COST  501291  S16  1
    x_16_31  D31  1
    x_16_32  COST  265510  S16  1
    x_16_32  D32  1
    x_16_33  COST  597580  S16  1
    x_16_33  D33  1
    x_16_34  COST  646415  S16  1
    x_16_34  D34  1
    x_16_35  COST  351165  S16  1
    x_16_35  D35  1
    x_16_36  COST  427570  S16  1
    x_16_36  D36  1
    x_16_37  COST  468363  S16  1
    x_16_37  D37  1
    x_16_38  COST  744027  S16  1
    x_16_38  D38  1
    x_16_39  COST  150432  S16  1
    x_16_39  D39  1
    x_16_40  COST  227380  S16  1
    x_16_40  D40  1
    x_16_41  COST  465463  S16  1
    x_16_41  D41  1
    x_16_42  COST  631846  S16  1
    x_16_42  D42  1
    x_16_43  COST  272851  S16  1
    x_16_43  D43  1
    x_16_44  COST  848741  S16  1
    x_16_44  D44  1
    x_16_45  COST  897701  S16  1
    x_16_45  D45  1
    x_16_46  COST  371138  S16  1
    x_16_46  D46  1
    x_16_47  COST  557238  S16  1
    x_16_47  D47  1
    x_16_48  COST  232527  S16  1
    x_16_48  D48  1
    x_16_49  COST  228899  S16  1
    x_16_49  D49  1
    x_16_50  COST  125271  S16  1
    x_16_50  D50  1
    x_16_51  COST  463470  S16  1
    x_16_51  D51  1
    x_16_52  COST  622530  S16  1
    x_16_52  D52  1
    x_16_53  COST  969922  S16  1
    x_16_53  D53  1
    x_16_54  COST  618811  S16  1
    x_16_54  D54  1
    x_16_55  COST  537359  S16  1
    x_16_55  D55  1
    x_16_56  COST  402666  S16  1
    x_16_56  D56  1
    x_16_57  COST  87298  S16  1
    x_16_57  D57  1
    x_16_58  COST  882683  S16  1
    x_16_58  D58  1
    x_16_59  COST  379602  S16  1
    x_16_59  D59  1
    x_17_0  COST  498127  S17  1
    x_17_0  D0  1
    x_17_1  COST  789459  S17  1
    x_17_1  D1  1
    x_17_2  COST  260306  S17  1
    x_17_2  D2  1
    x_17_3  COST  780015  S17  1
    x_17_3  D3  1
    x_17_4  COST  486804  S17  1
    x_17_4  D4  1
    x_17_5  COST  235758  S17  1
    x_17_5  D5  1
    x_17_6  COST  4534  S17  1
    x_17_6  D6  1
    x_17_7  COST  653801  S17  1
    x_17_7  D7  1
    x_17_8  COST  494821  S17  1
    x_17_8  D8  1
    x_17_9  COST  307107  S17  1
    x_17_9  D9  1
    x_17_10  COST  725544  S17  1
    x_17_10  D10  1
    x_17_11  COST  668997  S17  1
    x_17_11  D11  1
    x_17_12  COST  583368  S17  1
    x_17_12  D12  1
    x_17_13  COST  857123  S17  1
    x_17_13  D13  1
    x_17_14  COST  629613  S17  1
    x_17_14  D14  1
    x_17_15  COST  32848  S17  1
    x_17_15  D15  1
    x_17_16  COST  811097  S17  1
    x_17_16  D16  1
    x_17_17  COST  869787  S17  1
    x_17_17  D17  1
    x_17_18  COST  291102  S17  1
    x_17_18  D18  1
    x_17_19  COST  912513  S17  1
    x_17_19  D19  1
    x_17_20  COST  180654  S17  1
    x_17_20  D20  1
    x_17_21  COST  354089  S17  1
    x_17_21  D21  1
    x_17_22  COST  801064  S17  1
    x_17_22  D22  1
    x_17_23  COST  882970  S17  1
    x_17_23  D23  1
    x_17_24  COST  466349  S17  1
    x_17_24  D24  1
    x_17_25  COST  83015  S17  1
    x_17_25  D25  1
    x_17_26  COST  459411  S17  1
    x_17_26  D26  1
    x_17_27  COST  450511  S17  1
    x_17_27  D27  1
    x_17_28  COST  737389  S17  1
    x_17_28  D28  1
    x_17_29  COST  792556  S17  1
    x_17_29  D29  1
    x_17_30  COST  730428  S17  1
    x_17_30  D30  1
    x_17_31  COST  50856  S17  1
    x_17_31  D31  1
    x_17_32  COST  810557  S17  1
    x_17_32  D32  1
    x_17_33  COST  737350  S17  1
    x_17_33  D33  1
    x_17_34  COST  995926  S17  1
    x_17_34  D34  1
    x_17_35  COST  534166  S17  1
    x_17_35  D35  1
    x_17_36  COST  246557  S17  1
    x_17_36  D36  1
    x_17_37  COST  216935  S17  1
    x_17_37  D37  1
    x_17_38  COST  730846  S17  1
    x_17_38  D38  1
    x_17_39  COST  868473  S17  1
    x_17_39  D39  1
    x_17_40  COST  957125  S17  1
    x_17_40  D40  1
    x_17_41  COST  239719  S17  1
    x_17_41  D41  1
    x_17_42  COST  402219  S17  1
    x_17_42  D42  1
    x_17_43  COST  675213  S17  1
    x_17_43  D43  1
    x_17_44  COST  568372  S17  1
    x_17_44  D44  1
    x_17_45  COST  721729  S17  1
    x_17_45  D45  1
    x_17_46  COST  628105  S17  1
    x_17_46  D46  1
    x_17_47  COST  939110  S17  1
    x_17_47  D47  1
    x_17_48  COST  854044  S17  1
    x_17_48  D48  1
    x_17_49  COST  75027  S17  1
    x_17_49  D49  1
    x_17_50  COST  916600  S17  1
    x_17_50  D50  1
    x_17_51  COST  447734  S17  1
    x_17_51  D51  1
    x_17_52  COST  308554  S17  1
    x_17_52  D52  1
    x_17_53  COST  799709  S17  1
    x_17_53  D53  1
    x_17_54  COST  204485  S17  1
    x_17_54  D54  1
    x_17_55  COST  907988  S17  1
    x_17_55  D55  1
    x_17_56  COST  595532  S17  1
    x_17_56  D56  1
    x_17_57  COST  343104  S17  1
    x_17_57  D57  1
    x_17_58  COST  376528  S17  1
    x_17_58  D58  1
    x_17_59  COST  957373  S17  1
    x_17_59  D59  1
    x_18_0  COST  745688  S18  1
    x_18_0  D0  1
    x_18_1  COST  754320  S18  1
    x_18_1  D1  1
    x_18_2  COST  362502  S18  1
    x_18_2  D2  1
    x_18_3  COST  567091  S18  1
    x_18_3  D3  1
    x_18_4  COST  557519  S18  1
    x_18_4  D4  1
    x_18_5  COST  477833  S18  1
    x_18_5  D5  1
    x_18_6  COST  991748  S18  1
    x_18_6  D6  1
    x_18_7  COST  302503  S18  1
    x_18_7  D7  1
    x_18_8  COST  489110  S18  1
    x_18_8  D8  1
    x_18_9  COST  227032  S18  1
    x_18_9  D9  1
    x_18_10  COST  557941  S18  1
    x_18_10  D10  1
    x_18_11  COST  631943  S18  1
    x_18_11  D11  1
    x_18_12  COST  809767  S18  1
    x_18_12  D12  1
    x_18_13  COST  820392  S18  1
    x_18_13  D13  1
    x_18_14  COST  173561  S18  1
    x_18_14  D14  1
    x_18_15  COST  588650  S18  1
    x_18_15  D15  1
    x_18_16  COST  882149  S18  1
    x_18_16  D16  1
    x_18_17  COST  975794  S18  1
    x_18_17  D17  1
    x_18_18  COST  18582  S18  1
    x_18_18  D18  1
    x_18_19  COST  521959  S18  1
    x_18_19  D19  1
    x_18_20  COST  79489  S18  1
    x_18_20  D20  1
    x_18_21  COST  637973  S18  1
    x_18_21  D21  1
    x_18_22  COST  284823  S18  1
    x_18_22  D22  1
    x_18_23  COST  678796  S18  1
    x_18_23  D23  1
    x_18_24  COST  149115  S18  1
    x_18_24  D24  1
    x_18_25  COST  294112  S18  1
    x_18_25  D25  1
    x_18_26  COST  652988  S18  1
    x_18_26  D26  1
    x_18_27  COST  694208  S18  1
    x_18_27  D27  1
    x_18_28  COST  2441  S18  1
    x_18_28  D28  1
    x_18_29  COST  118231  S18  1
    x_18_29  D29  1
    x_18_30  COST  987508  S18  1
    x_18_30  D30  1
    x_18_31  COST  343594  S18  1
    x_18_31  D31  1
    x_18_32  COST  753003  S18  1
    x_18_32  D32  1
    x_18_33  COST  796943  S18  1
    x_18_33  D33  1
    x_18_34  COST  840917  S18  1
    x_18_34  D34  1
    x_18_35  COST  184782  S18  1
    x_18_35  D35  1
    x_18_36  COST  61318  S18  1
    x_18_36  D36  1
    x_18_37  COST  714806  S18  1
    x_18_37  D37  1
    x_18_38  COST  132118  S18  1
    x_18_38  D38  1
    x_18_39  COST  708148  S18  1
    x_18_39  D39  1
    x_18_40  COST  181529  S18  1
    x_18_40  D40  1
    x_18_41  COST  910008  S18  1
    x_18_41  D41  1
    x_18_42  COST  30135  S18  1
    x_18_42  D42  1
    x_18_43  COST  632512  S18  1
    x_18_43  D43  1
    x_18_44  COST  889325  S18  1
    x_18_44  D44  1
    x_18_45  COST  534992  S18  1
    x_18_45  D45  1
    x_18_46  COST  733954  S18  1
    x_18_46  D46  1
    x_18_47  COST  970003  S18  1
    x_18_47  D47  1
    x_18_48  COST  231300  S18  1
    x_18_48  D48  1
    x_18_49  COST  965336  S18  1
    x_18_49  D49  1
    x_18_50  COST  549425  S18  1
    x_18_50  D50  1
    x_18_51  COST  566763  S18  1
    x_18_51  D51  1
    x_18_52  COST  207810  S18  1
    x_18_52  D52  1
    x_18_53  COST  804089  S18  1
    x_18_53  D53  1
    x_18_54  COST  41116  S18  1
    x_18_54  D54  1
    x_18_55  COST  570822  S18  1
    x_18_55  D55  1
    x_18_56  COST  823161  S18  1
    x_18_56  D56  1
    x_18_57  COST  423668  S18  1
    x_18_57  D57  1
    x_18_58  COST  161509  S18  1
    x_18_58  D58  1
    x_18_59  COST  730871  S18  1
    x_18_59  D59  1
    x_19_0  COST  495513  S19  1
    x_19_0  D0  1
    x_19_1  COST  53956  S19  1
    x_19_1  D1  1
    x_19_2  COST  594348  S19  1
    x_19_2  D2  1
    x_19_3  COST  255536  S19  1
    x_19_3  D3  1
    x_19_4  COST  570755  S19  1
    x_19_4  D4  1
    x_19_5  COST  622540  S19  1
    x_19_5  D5  1
    x_19_6  COST  549405  S19  1
    x_19_6  D6  1
    x_19_7  COST  538797  S19  1
    x_19_7  D7  1
    x_19_8  COST  367633  S19  1
    x_19_8  D8  1
    x_19_9  COST  785182  S19  1
    x_19_9  D9  1
    x_19_10  COST  938327  S19  1
    x_19_10  D10  1
    x_19_11  COST  409303  S19  1
    x_19_11  D11  1
    x_19_12  COST  905031  S19  1
    x_19_12  D12  1
    x_19_13  COST  574974  S19  1
    x_19_13  D13  1
    x_19_14  COST  848087  S19  1
    x_19_14  D14  1
    x_19_15  COST  105442  S19  1
    x_19_15  D15  1
    x_19_16  COST  173066  S19  1
    x_19_16  D16  1
    x_19_17  COST  455097  S19  1
    x_19_17  D17  1
    x_19_18  COST  630502  S19  1
    x_19_18  D18  1
    x_19_19  COST  191153  S19  1
    x_19_19  D19  1
    x_19_20  COST  930134  S19  1
    x_19_20  D20  1
    x_19_21  COST  497983  S19  1
    x_19_21  D21  1
    x_19_22  COST  16263  S19  1
    x_19_22  D22  1
    x_19_23  COST  304745  S19  1
    x_19_23  D23  1
    x_19_24  COST  726098  S19  1
    x_19_24  D24  1
    x_19_25  COST  367137  S19  1
    x_19_25  D25  1
    x_19_26  COST  847791  S19  1
    x_19_26  D26  1
    x_19_27  COST  852952  S19  1
    x_19_27  D27  1
    x_19_28  COST  572476  S19  1
    x_19_28  D28  1
    x_19_29  COST  71287  S19  1
    x_19_29  D29  1
    x_19_30  COST  103523  S19  1
    x_19_30  D30  1
    x_19_31  COST  730114  S19  1
    x_19_31  D31  1
    x_19_32  COST  21594  S19  1
    x_19_32  D32  1
    x_19_33  COST  65865  S19  1
    x_19_33  D33  1
    x_19_34  COST  677084  S19  1
    x_19_34  D34  1
    x_19_35  COST  732252  S19  1
    x_19_35  D35  1
    x_19_36  COST  385815  S19  1
    x_19_36  D36  1
    x_19_37  COST  98117  S19  1
    x_19_37  D37  1
    x_19_38  COST  781430  S19  1
    x_19_38  D38  1
    x_19_39  COST  381708  S19  1
    x_19_39  D39  1
    x_19_40  COST  504502  S19  1
    x_19_40  D40  1
    x_19_41  COST  546649  S19  1
    x_19_41  D41  1
    x_19_42  COST  910386  S19  1
    x_19_42  D42  1
    x_19_43  COST  675309  S19  1
    x_19_43  D43  1
    x_19_44  COST  202706  S19  1
    x_19_44  D44  1
    x_19_45  COST  897565  S19  1
    x_19_45  D45  1
    x_19_46  COST  957085  S19  1
    x_19_46  D46  1
    x_19_47  COST  832136  S19  1
    x_19_47  D47  1
    x_19_48  COST  386434  S19  1
    x_19_48  D48  1
    x_19_49  COST  180660  S19  1
    x_19_49  D49  1
    x_19_50  COST  41499  S19  1
    x_19_50  D50  1
    x_19_51  COST  216806  S19  1
    x_19_51  D51  1
    x_19_52  COST  741838  S19  1
    x_19_52  D52  1
    x_19_53  COST  918769  S19  1
    x_19_53  D53  1
    x_19_54  COST  94812  S19  1
    x_19_54  D54  1
    x_19_55  COST  662207  S19  1
    x_19_55  D55  1
    x_19_56  COST  279795  S19  1
    x_19_56  D56  1
    x_19_57  COST  313891  S19  1
    x_19_57  D57  1
    x_19_58  COST  436166  S19  1
    x_19_58  D58  1
    x_19_59  COST  177842  S19  1
    x_19_59  D59  1
    x_20_0  COST  476438  S20  1
    x_20_0  D0  1
    x_20_1  COST  296534  S20  1
    x_20_1  D1  1
    x_20_2  COST  586156  S20  1
    x_20_2  D2  1
    x_20_3  COST  475207  S20  1
    x_20_3  D3  1
    x_20_4  COST  132212  S20  1
    x_20_4  D4  1
    x_20_5  COST  520148  S20  1
    x_20_5  D5  1
    x_20_6  COST  245740  S20  1
    x_20_6  D6  1
    x_20_7  COST  820934  S20  1
    x_20_7  D7  1
    x_20_8  COST  25668  S20  1
    x_20_8  D8  1
    x_20_9  COST  397356  S20  1
    x_20_9  D9  1
    x_20_10  COST  190096  S20  1
    x_20_10  D10  1
    x_20_11  COST  714811  S20  1
    x_20_11  D11  1
    x_20_12  COST  885938  S20  1
    x_20_12  D12  1
    x_20_13  COST  312654  S20  1
    x_20_13  D13  1
    x_20_14  COST  803923  S20  1
    x_20_14  D14  1
    x_20_15  COST  848168  S20  1
    x_20_15  D15  1
    x_20_16  COST  796111  S20  1
    x_20_16  D16  1
    x_20_17  COST  963862  S20  1
    x_20_17  D17  1
    x_20_18  COST  67464  S20  1
    x_20_18  D18  1
    x_20_19  COST  844066  S20  1
    x_20_19  D19  1
    x_20_20  COST  559003  S20  1
    x_20_20  D20  1
    x_20_21  COST  498981  S20  1
    x_20_21  D21  1
    x_20_22  COST  208311  S20  1
    x_20_22  D22  1
    x_20_23  COST  325452  S20  1
    x_20_23  D23  1
    x_20_24  COST  221868  S20  1
    x_20_24  D24  1
    x_20_25  COST  281230  S20  1
    x_20_25  D25  1
    x_20_26  COST  863724  S20  1
    x_20_26  D26  1
    x_20_27  COST  50291  S20  1
    x_20_27  D27  1
    x_20_28  COST  749074  S20  1
    x_20_28  D28  1
    x_20_29  COST  212385  S20  1
    x_20_29  D29  1
    x_20_30  COST  770676  S20  1
    x_20_30  D30  1
    x_20_31  COST  844559  S20  1
    x_20_31  D31  1
    x_20_32  COST  486557  S20  1
    x_20_32  D32  1
    x_20_33  COST  212301  S20  1
    x_20_33  D33  1
    x_20_34  COST  827604  S20  1
    x_20_34  D34  1
    x_20_35  COST  824117  S20  1
    x_20_35  D35  1
    x_20_36  COST  648527  S20  1
    x_20_36  D36  1
    x_20_37  COST  851142  S20  1
    x_20_37  D37  1
    x_20_38  COST  961342  S20  1
    x_20_38  D38  1
    x_20_39  COST  582138  S20  1
    x_20_39  D39  1
    x_20_40  COST  568852  S20  1
    x_20_40  D40  1
    x_20_41  COST  868447  S20  1
    x_20_41  D41  1
    x_20_42  COST  161361  S20  1
    x_20_42  D42  1
    x_20_43  COST  903288  S20  1
    x_20_43  D43  1
    x_20_44  COST  932076  S20  1
    x_20_44  D44  1
    x_20_45  COST  619862  S20  1
    x_20_45  D45  1
    x_20_46  COST  301956  S20  1
    x_20_46  D46  1
    x_20_47  COST  34059  S20  1
    x_20_47  D47  1
    x_20_48  COST  984868  S20  1
    x_20_48  D48  1
    x_20_49  COST  237161  S20  1
    x_20_49  D49  1
    x_20_50  COST  668760  S20  1
    x_20_50  D50  1
    x_20_51  COST  651271  S20  1
    x_20_51  D51  1
    x_20_52  COST  964533  S20  1
    x_20_52  D52  1
    x_20_53  COST  73756  S20  1
    x_20_53  D53  1
    x_20_54  COST  53583  S20  1
    x_20_54  D54  1
    x_20_55  COST  142120  S20  1
    x_20_55  D55  1
    x_20_56  COST  294036  S20  1
    x_20_56  D56  1
    x_20_57  COST  376413  S20  1
    x_20_57  D57  1
    x_20_58  COST  919808  S20  1
    x_20_58  D58  1
    x_20_59  COST  911013  S20  1
    x_20_59  D59  1
    x_21_0  COST  138999  S21  1
    x_21_0  D0  1
    x_21_1  COST  844314  S21  1
    x_21_1  D1  1
    x_21_2  COST  812813  S21  1
    x_21_2  D2  1
    x_21_3  COST  25070  S21  1
    x_21_3  D3  1
    x_21_4  COST  819567  S21  1
    x_21_4  D4  1
    x_21_5  COST  587034  S21  1
    x_21_5  D5  1
    x_21_6  COST  21150  S21  1
    x_21_6  D6  1
    x_21_7  COST  185442  S21  1
    x_21_7  D7  1
    x_21_8  COST  705656  S21  1
    x_21_8  D8  1
    x_21_9  COST  890393  S21  1
    x_21_9  D9  1
    x_21_10  COST  987983  S21  1
    x_21_10  D10  1
    x_21_11  COST  955388  S21  1
    x_21_11  D11  1
    x_21_12  COST  171746  S21  1
    x_21_12  D12  1
    x_21_13  COST  813189  S21  1
    x_21_13  D13  1
    x_21_14  COST  411792  S21  1
    x_21_14  D14  1
    x_21_15  COST  773046  S21  1
    x_21_15  D15  1
    x_21_16  COST  910790  S21  1
    x_21_16  D16  1
    x_21_17  COST  372856  S21  1
    x_21_17  D17  1
    x_21_18  COST  351065  S21  1
    x_21_18  D18  1
    x_21_19  COST  424728  S21  1
    x_21_19  D19  1
    x_21_20  COST  249882  S21  1
    x_21_20  D20  1
    x_21_21  COST  14535  S21  1
    x_21_21  D21  1
    x_21_22  COST  172994  S21  1
    x_21_22  D22  1
    x_21_23  COST  945027  S21  1
    x_21_23  D23  1
    x_21_24  COST  353170  S21  1
    x_21_24  D24  1
    x_21_25  COST  879439  S21  1
    x_21_25  D25  1
    x_21_26  COST  225996  S21  1
    x_21_26  D26  1
    x_21_27  COST  46392  S21  1
    x_21_27  D27  1
    x_21_28  COST  507322  S21  1
    x_21_28  D28  1
    x_21_29  COST  299696  S21  1
    x_21_29  D29  1
    x_21_30  COST  250769  S21  1
    x_21_30  D30  1
    x_21_31  COST  779187  S21  1
    x_21_31  D31  1
    x_21_32  COST  942241  S21  1
    x_21_32  D32  1
    x_21_33  COST  270341  S21  1
    x_21_33  D33  1
    x_21_34  COST  366557  S21  1
    x_21_34  D34  1
    x_21_35  COST  944679  S21  1
    x_21_35  D35  1
    x_21_36  COST  355177  S21  1
    x_21_36  D36  1
    x_21_37  COST  345506  S21  1
    x_21_37  D37  1
    x_21_38  COST  534458  S21  1
    x_21_38  D38  1
    x_21_39  COST  18596  S21  1
    x_21_39  D39  1
    x_21_40  COST  130595  S21  1
    x_21_40  D40  1
    x_21_41  COST  426564  S21  1
    x_21_41  D41  1
    x_21_42  COST  865565  S21  1
    x_21_42  D42  1
    x_21_43  COST  702947  S21  1
    x_21_43  D43  1
    x_21_44  COST  696872  S21  1
    x_21_44  D44  1
    x_21_45  COST  410605  S21  1
    x_21_45  D45  1
    x_21_46  COST  317468  S21  1
    x_21_46  D46  1
    x_21_47  COST  487206  S21  1
    x_21_47  D47  1
    x_21_48  COST  961404  S21  1
    x_21_48  D48  1
    x_21_49  COST  436359  S21  1
    x_21_49  D49  1
    x_21_50  COST  532929  S21  1
    x_21_50  D50  1
    x_21_51  COST  34533  S21  1
    x_21_51  D51  1
    x_21_52  COST  833253  S21  1
    x_21_52  D52  1
    x_21_53  COST  914901  S21  1
    x_21_53  D53  1
    x_21_54  COST  920853  S21  1
    x_21_54  D54  1
    x_21_55  COST  412482  S21  1
    x_21_55  D55  1
    x_21_56  COST  949826  S21  1
    x_21_56  D56  1
    x_21_57  COST  606743  S21  1
    x_21_57  D57  1
    x_21_58  COST  660952  S21  1
    x_21_58  D58  1
    x_21_59  COST  339035  S21  1
    x_21_59  D59  1
    x_22_0  COST  757524  S22  1
    x_22_0  D0  1
    x_22_1  COST  395511  S22  1
    x_22_1  D1  1
    x_22_2  COST  98653  S22  1
    x_22_2  D2  1
    x_22_3  COST  927101  S22  1
    x_22_3  D3  1
    x_22_4  COST  16331  S22  1
    x_22_4  D4  1
    x_22_5  COST  481102  S22  1
    x_22_5  D5  1
    x_22_6  COST  913487  S22  1
    x_22_6  D6  1
    x_22_7  COST  138065  S22  1
    x_22_7  D7  1
    x_22_8  COST  500404  S22  1
    x_22_8  D8  1
    x_22_9  COST  629937  S22  1
    x_22_9  D9  1
    x_22_10  COST  385632  S22  1
    x_22_10  D10  1
    x_22_11  COST  552578  S22  1
    x_22_11  D11  1
    x_22_12  COST  902038  S22  1
    x_22_12  D12  1
    x_22_13  COST  179205  S22  1
    x_22_13  D13  1
    x_22_14  COST  107379  S22  1
    x_22_14  D14  1
    x_22_15  COST  754469  S22  1
    x_22_15  D15  1
    x_22_16  COST  41668  S22  1
    x_22_16  D16  1
    x_22_17  COST  186347  S22  1
    x_22_17  D17  1
    x_22_18  COST  713125  S22  1
    x_22_18  D18  1
    x_22_19  COST  438426  S22  1
    x_22_19  D19  1
    x_22_20  COST  768370  S22  1
    x_22_20  D20  1
    x_22_21  COST  932761  S22  1
    x_22_21  D21  1
    x_22_22  COST  729941  S22  1
    x_22_22  D22  1
    x_22_23  COST  981257  S22  1
    x_22_23  D23  1
    x_22_24  COST  407865  S22  1
    x_22_24  D24  1
    x_22_25  COST  187605  S22  1
    x_22_25  D25  1
    x_22_26  COST  927306  S22  1
    x_22_26  D26  1
    x_22_27  COST  406604  S22  1
    x_22_27  D27  1
    x_22_28  COST  514047  S22  1
    x_22_28  D28  1
    x_22_29  COST  320025  S22  1
    x_22_29  D29  1
    x_22_30  COST  926648  S22  1
    x_22_30  D30  1
    x_22_31  COST  110100  S22  1
    x_22_31  D31  1
    x_22_32  COST  70659  S22  1
    x_22_32  D32  1
    x_22_33  COST  559558  S22  1
    x_22_33  D33  1
    x_22_34  COST  619339  S22  1
    x_22_34  D34  1
    x_22_35  COST  259690  S22  1
    x_22_35  D35  1
    x_22_36  COST  112928  S22  1
    x_22_36  D36  1
    x_22_37  COST  679880  S22  1
    x_22_37  D37  1
    x_22_38  COST  558568  S22  1
    x_22_38  D38  1
    x_22_39  COST  290154  S22  1
    x_22_39  D39  1
    x_22_40  COST  301078  S22  1
    x_22_40  D40  1
    x_22_41  COST  790287  S22  1
    x_22_41  D41  1
    x_22_42  COST  222280  S22  1
    x_22_42  D42  1
    x_22_43  COST  7487  S22  1
    x_22_43  D43  1
    x_22_44  COST  782452  S22  1
    x_22_44  D44  1
    x_22_45  COST  144089  S22  1
    x_22_45  D45  1
    x_22_46  COST  598553  S22  1
    x_22_46  D46  1
    x_22_47  COST  366757  S22  1
    x_22_47  D47  1
    x_22_48  COST  943643  S22  1
    x_22_48  D48  1
    x_22_49  COST  194449  S22  1
    x_22_49  D49  1
    x_22_50  COST  753242  S22  1
    x_22_50  D50  1
    x_22_51  COST  80606  S22  1
    x_22_51  D51  1
    x_22_52  COST  834340  S22  1
    x_22_52  D52  1
    x_22_53  COST  444891  S22  1
    x_22_53  D53  1
    x_22_54  COST  127473  S22  1
    x_22_54  D54  1
    x_22_55  COST  350545  S22  1
    x_22_55  D55  1
    x_22_56  COST  695961  S22  1
    x_22_56  D56  1
    x_22_57  COST  33707  S22  1
    x_22_57  D57  1
    x_22_58  COST  439419  S22  1
    x_22_58  D58  1
    x_22_59  COST  407182  S22  1
    x_22_59  D59  1
    x_23_0  COST  511239  S23  1
    x_23_0  D0  1
    x_23_1  COST  563230  S23  1
    x_23_1  D1  1
    x_23_2  COST  646236  S23  1
    x_23_2  D2  1
    x_23_3  COST  379259  S23  1
    x_23_3  D3  1
    x_23_4  COST  267047  S23  1
    x_23_4  D4  1
    x_23_5  COST  65810  S23  1
    x_23_5  D5  1
    x_23_6  COST  762688  S23  1
    x_23_6  D6  1
    x_23_7  COST  686517  S23  1
    x_23_7  D7  1
    x_23_8  COST  283122  S23  1
    x_23_8  D8  1
    x_23_9  COST  244528  S23  1
    x_23_9  D9  1
    x_23_10  COST  568551  S23  1
    x_23_10  D10  1
    x_23_11  COST  321065  S23  1
    x_23_11  D11  1
    x_23_12  COST  112703  S23  1
    x_23_12  D12  1
    x_23_13  COST  458149  S23  1
    x_23_13  D13  1
    x_23_14  COST  5681  S23  1
    x_23_14  D14  1
    x_23_15  COST  289945  S23  1
    x_23_15  D15  1
    x_23_16  COST  892171  S23  1
    x_23_16  D16  1
    x_23_17  COST  111054  S23  1
    x_23_17  D17  1
    x_23_18  COST  120719  S23  1
    x_23_18  D18  1
    x_23_19  COST  189586  S23  1
    x_23_19  D19  1
    x_23_20  COST  309384  S23  1
    x_23_20  D20  1
    x_23_21  COST  420318  S23  1
    x_23_21  D21  1
    x_23_22  COST  468691  S23  1
    x_23_22  D22  1
    x_23_23  COST  596309  S23  1
    x_23_23  D23  1
    x_23_24  COST  501075  S23  1
    x_23_24  D24  1
    x_23_25  COST  903063  S23  1
    x_23_25  D25  1
    x_23_26  COST  406325  S23  1
    x_23_26  D26  1
    x_23_27  COST  209347  S23  1
    x_23_27  D27  1
    x_23_28  COST  146723  S23  1
    x_23_28  D28  1
    x_23_29  COST  466247  S23  1
    x_23_29  D29  1
    x_23_30  COST  72676  S23  1
    x_23_30  D30  1
    x_23_31  COST  410119  S23  1
    x_23_31  D31  1
    x_23_32  COST  136854  S23  1
    x_23_32  D32  1
    x_23_33  COST  721291  S23  1
    x_23_33  D33  1
    x_23_34  COST  457710  S23  1
    x_23_34  D34  1
    x_23_35  COST  723906  S23  1
    x_23_35  D35  1
    x_23_36  COST  184426  S23  1
    x_23_36  D36  1
    x_23_37  COST  393979  S23  1
    x_23_37  D37  1
    x_23_38  COST  895638  S23  1
    x_23_38  D38  1
    x_23_39  COST  616545  S23  1
    x_23_39  D39  1
    x_23_40  COST  459985  S23  1
    x_23_40  D40  1
    x_23_41  COST  287822  S23  1
    x_23_41  D41  1
    x_23_42  COST  511788  S23  1
    x_23_42  D42  1
    x_23_43  COST  54319  S23  1
    x_23_43  D43  1
    x_23_44  COST  815235  S23  1
    x_23_44  D44  1
    x_23_45  COST  528215  S23  1
    x_23_45  D45  1
    x_23_46  COST  674759  S23  1
    x_23_46  D46  1
    x_23_47  COST  485430  S23  1
    x_23_47  D47  1
    x_23_48  COST  866957  S23  1
    x_23_48  D48  1
    x_23_49  COST  738367  S23  1
    x_23_49  D49  1
    x_23_50  COST  503993  S23  1
    x_23_50  D50  1
    x_23_51  COST  307188  S23  1
    x_23_51  D51  1
    x_23_52  COST  284991  S23  1
    x_23_52  D52  1
    x_23_53  COST  401750  S23  1
    x_23_53  D53  1
    x_23_54  COST  151457  S23  1
    x_23_54  D54  1
    x_23_55  COST  831274  S23  1
    x_23_55  D55  1
    x_23_56  COST  167251  S23  1
    x_23_56  D56  1
    x_23_57  COST  372330  S23  1
    x_23_57  D57  1
    x_23_58  COST  484787  S23  1
    x_23_58  D58  1
    x_23_59  COST  516052  S23  1
    x_23_59  D59  1
    x_24_0  COST  537701  S24  1
    x_24_0  D0  1
    x_24_1  COST  335239  S24  1
    x_24_1  D1  1
    x_24_2  COST  687252  S24  1
    x_24_2  D2  1
    x_24_3  COST  307975  S24  1
    x_24_3  D3  1
    x_24_4  COST  580465  S24  1
    x_24_4  D4  1
    x_24_5  COST  234682  S24  1
    x_24_5  D5  1
    x_24_6  COST  194409  S24  1
    x_24_6  D6  1
    x_24_7  COST  624921  S24  1
    x_24_7  D7  1
    x_24_8  COST  330604  S24  1
    x_24_8  D8  1
    x_24_9  COST  266760  S24  1
    x_24_9  D9  1
    x_24_10  COST  453215  S24  1
    x_24_10  D10  1
    x_24_11  COST  987511  S24  1
    x_24_11  D11  1
    x_24_12  COST  431237  S24  1
    x_24_12  D12  1
    x_24_13  COST  734136  S24  1
    x_24_13  D13  1
    x_24_14  COST  679391  S24  1
    x_24_14  D14  1
    x_24_15  COST  221873  S24  1
    x_24_15  D15  1
    x_24_16  COST  800423  S24  1
    x_24_16  D16  1
    x_24_17  COST  805535  S24  1
    x_24_17  D17  1
    x_24_18  COST  223883  S24  1
    x_24_18  D18  1
    x_24_19  COST  133209  S24  1
    x_24_19  D19  1
    x_24_20  COST  498137  S24  1
    x_24_20  D20  1
    x_24_21  COST  296335  S24  1
    x_24_21  D21  1
    x_24_22  COST  984039  S24  1
    x_24_22  D22  1
    x_24_23  COST  35132  S24  1
    x_24_23  D23  1
    x_24_24  COST  466512  S24  1
    x_24_24  D24  1
    x_24_25  COST  740121  S24  1
    x_24_25  D25  1
    x_24_26  COST  244343  S24  1
    x_24_26  D26  1
    x_24_27  COST  453320  S24  1
    x_24_27  D27  1
    x_24_28  COST  753443  S24  1
    x_24_28  D28  1
    x_24_29  COST  528363  S24  1
    x_24_29  D29  1
    x_24_30  COST  478666  S24  1
    x_24_30  D30  1
    x_24_31  COST  1163  S24  1
    x_24_31  D31  1
    x_24_32  COST  796081  S24  1
    x_24_32  D32  1
    x_24_33  COST  187860  S24  1
    x_24_33  D33  1
    x_24_34  COST  869022  S24  1
    x_24_34  D34  1
    x_24_35  COST  444503  S24  1
    x_24_35  D35  1
    x_24_36  COST  821276  S24  1
    x_24_36  D36  1
    x_24_37  COST  444029  S24  1
    x_24_37  D37  1
    x_24_38  COST  774079  S24  1
    x_24_38  D38  1
    x_24_39  COST  238521  S24  1
    x_24_39  D39  1
    x_24_40  COST  144011  S24  1
    x_24_40  D40  1
    x_24_41  COST  594917  S24  1
    x_24_41  D41  1
    x_24_42  COST  368521  S24  1
    x_24_42  D42  1
    x_24_43  COST  747358  S24  1
    x_24_43  D43  1
    x_24_44  COST  541316  S24  1
    x_24_44  D44  1
    x_24_45  COST  49628  S24  1
    x_24_45  D45  1
    x_24_46  COST  663668  S24  1
    x_24_46  D46  1
    x_24_47  COST  335715  S24  1
    x_24_47  D47  1
    x_24_48  COST  218913  S24  1
    x_24_48  D48  1
    x_24_49  COST  9443  S24  1
    x_24_49  D49  1
    x_24_50  COST  955671  S24  1
    x_24_50  D50  1
    x_24_51  COST  744138  S24  1
    x_24_51  D51  1
    x_24_52  COST  449482  S24  1
    x_24_52  D52  1
    x_24_53  COST  923508  S24  1
    x_24_53  D53  1
    x_24_54  COST  578106  S24  1
    x_24_54  D54  1
    x_24_55  COST  843871  S24  1
    x_24_55  D55  1
    x_24_56  COST  929122  S24  1
    x_24_56  D56  1
    x_24_57  COST  928329  S24  1
    x_24_57  D57  1
    x_24_58  COST  256911  S24  1
    x_24_58  D58  1
    x_24_59  COST  835654  S24  1
    x_24_59  D59  1
    x_25_0  COST  130592  S25  1
    x_25_0  D0  1
    x_25_1  COST  11582  S25  1
    x_25_1  D1  1
    x_25_2  COST  840597  S25  1
    x_25_2  D2  1
    x_25_3  COST  744967  S25  1
    x_25_3  D3  1
    x_25_4  COST  754808  S25  1
    x_25_4  D4  1
    x_25_5  COST  535807  S25  1
    x_25_5  D5  1
    x_25_6  COST  97267  S25  1
    x_25_6  D6  1
    x_25_7  COST  697701  S25  1
    x_25_7  D7  1
    x_25_8  COST  121570  S25  1
    x_25_8  D8  1
    x_25_9  COST  26753  S25  1
    x_25_9  D9  1
    x_25_10  COST  588835  S25  1
    x_25_10  D10  1
    x_25_11  COST  14728  S25  1
    x_25_11  D11  1
    x_25_12  COST  78979  S25  1
    x_25_12  D12  1
    x_25_13  COST  3864  S25  1
    x_25_13  D13  1
    x_25_14  COST  137200  S25  1
    x_25_14  D14  1
    x_25_15  COST  283237  S25  1
    x_25_15  D15  1
    x_25_16  COST  104385  S25  1
    x_25_16  D16  1
    x_25_17  COST  224564  S25  1
    x_25_17  D17  1
    x_25_18  COST  597479  S25  1
    x_25_18  D18  1
    x_25_19  COST  83786  S25  1
    x_25_19  D19  1
    x_25_20  COST  381619  S25  1
    x_25_20  D20  1
    x_25_21  COST  176817  S25  1
    x_25_21  D21  1
    x_25_22  COST  607414  S25  1
    x_25_22  D22  1
    x_25_23  COST  846905  S25  1
    x_25_23  D23  1
    x_25_24  COST  5117  S25  1
    x_25_24  D24  1
    x_25_25  COST  444403  S25  1
    x_25_25  D25  1
    x_25_26  COST  25883  S25  1
    x_25_26  D26  1
    x_25_27  COST  357927  S25  1
    x_25_27  D27  1
    x_25_28  COST  722250  S25  1
    x_25_28  D28  1
    x_25_29  COST  106270  S25  1
    x_25_29  D29  1
    x_25_30  COST  564318  S25  1
    x_25_30  D30  1
    x_25_31  COST  487843  S25  1
    x_25_31  D31  1
    x_25_32  COST  201143  S25  1
    x_25_32  D32  1
    x_25_33  COST  1991  S25  1
    x_25_33  D33  1
    x_25_34  COST  527940  S25  1
    x_25_34  D34  1
    x_25_35  COST  596784  S25  1
    x_25_35  D35  1
    x_25_36  COST  430521  S25  1
    x_25_36  D36  1
    x_25_37  COST  595222  S25  1
    x_25_37  D37  1
    x_25_38  COST  142930  S25  1
    x_25_38  D38  1
    x_25_39  COST  268272  S25  1
    x_25_39  D39  1
    x_25_40  COST  170981  S25  1
    x_25_40  D40  1
    x_25_41  COST  637468  S25  1
    x_25_41  D41  1
    x_25_42  COST  509044  S25  1
    x_25_42  D42  1
    x_25_43  COST  935471  S25  1
    x_25_43  D43  1
    x_25_44  COST  947431  S25  1
    x_25_44  D44  1
    x_25_45  COST  191044  S25  1
    x_25_45  D45  1
    x_25_46  COST  160913  S25  1
    x_25_46  D46  1
    x_25_47  COST  846765  S25  1
    x_25_47  D47  1
    x_25_48  COST  755472  S25  1
    x_25_48  D48  1
    x_25_49  COST  123891  S25  1
    x_25_49  D49  1
    x_25_50  COST  66641  S25  1
    x_25_50  D50  1
    x_25_51  COST  829410  S25  1
    x_25_51  D51  1
    x_25_52  COST  831662  S25  1
    x_25_52  D52  1
    x_25_53  COST  769217  S25  1
    x_25_53  D53  1
    x_25_54  COST  386927  S25  1
    x_25_54  D54  1
    x_25_55  COST  599697  S25  1
    x_25_55  D55  1
    x_25_56  COST  184983  S25  1
    x_25_56  D56  1
    x_25_57  COST  726591  S25  1
    x_25_57  D57  1
    x_25_58  COST  812464  S25  1
    x_25_58  D58  1
    x_25_59  COST  320199  S25  1
    x_25_59  D59  1
    x_26_0  COST  739405  S26  1
    x_26_0  D0  1
    x_26_1  COST  621380  S26  1
    x_26_1  D1  1
    x_26_2  COST  322146  S26  1
    x_26_2  D2  1
    x_26_3  COST  764092  S26  1
    x_26_3  D3  1
    x_26_4  COST  19692  S26  1
    x_26_4  D4  1
    x_26_5  COST  946197  S26  1
    x_26_5  D5  1
    x_26_6  COST  332390  S26  1
    x_26_6  D6  1
    x_26_7  COST  381301  S26  1
    x_26_7  D7  1
    x_26_8  COST  183133  S26  1
    x_26_8  D8  1
    x_26_9  COST  773802  S26  1
    x_26_9  D9  1
    x_26_10  COST  846080  S26  1
    x_26_10  D10  1
    x_26_11  COST  839293  S26  1
    x_26_11  D11  1
    x_26_12  COST  671268  S26  1
    x_26_12  D12  1
    x_26_13  COST  502481  S26  1
    x_26_13  D13  1
    x_26_14  COST  697469  S26  1
    x_26_14  D14  1
    x_26_15  COST  303060  S26  1
    x_26_15  D15  1
    x_26_16  COST  564469  S26  1
    x_26_16  D16  1
    x_26_17  COST  149718  S26  1
    x_26_17  D17  1
    x_26_18  COST  690183  S26  1
    x_26_18  D18  1
    x_26_19  COST  136173  S26  1
    x_26_19  D19  1
    x_26_20  COST  594245  S26  1
    x_26_20  D20  1
    x_26_21  COST  845495  S26  1
    x_26_21  D21  1
    x_26_22  COST  764741  S26  1
    x_26_22  D22  1
    x_26_23  COST  392787  S26  1
    x_26_23  D23  1
    x_26_24  COST  778692  S26  1
    x_26_24  D24  1
    x_26_25  COST  910903  S26  1
    x_26_25  D25  1
    x_26_26  COST  422727  S26  1
    x_26_26  D26  1
    x_26_27  COST  179943  S26  1
    x_26_27  D27  1
    x_26_28  COST  770922  S26  1
    x_26_28  D28  1
    x_26_29  COST  650397  S26  1
    x_26_29  D29  1
    x_26_30  COST  951965  S26  1
    x_26_30  D30  1
    x_26_31  COST  932716  S26  1
    x_26_31  D31  1
    x_26_32  COST  349861  S26  1
    x_26_32  D32  1
    x_26_33  COST  281546  S26  1
    x_26_33  D33  1
    x_26_34  COST  999618  S26  1
    x_26_34  D34  1
    x_26_35  COST  881374  S26  1
    x_26_35  D35  1
    x_26_36  COST  122325  S26  1
    x_26_36  D36  1
    x_26_37  COST  379797  S26  1
    x_26_37  D37  1
    x_26_38  COST  899180  S26  1
    x_26_38  D38  1
    x_26_39  COST  44865  S26  1
    x_26_39  D39  1
    x_26_40  COST  769733  S26  1
    x_26_40  D40  1
    x_26_41  COST  203681  S26  1
    x_26_41  D41  1
    x_26_42  COST  376237  S26  1
    x_26_42  D42  1
    x_26_43  COST  604332  S26  1
    x_26_43  D43  1
    x_26_44  COST  364872  S26  1
    x_26_44  D44  1
    x_26_45  COST  925187  S26  1
    x_26_45  D45  1
    x_26_46  COST  164190  S26  1
    x_26_46  D46  1
    x_26_47  COST  450228  S26  1
    x_26_47  D47  1
    x_26_48  COST  353233  S26  1
    x_26_48  D48  1
    x_26_49  COST  596912  S26  1
    x_26_49  D49  1
    x_26_50  COST  122763  S26  1
    x_26_50  D50  1
    x_26_51  COST  674710  S26  1
    x_26_51  D51  1
    x_26_52  COST  352641  S26  1
    x_26_52  D52  1
    x_26_53  COST  881163  S26  1
    x_26_53  D53  1
    x_26_54  COST  648675  S26  1
    x_26_54  D54  1
    x_26_55  COST  86720  S26  1
    x_26_55  D55  1
    x_26_56  COST  13179  S26  1
    x_26_56  D56  1
    x_26_57  COST  249200  S26  1
    x_26_57  D57  1
    x_26_58  COST  428338  S26  1
    x_26_58  D58  1
    x_26_59  COST  212915  S26  1
    x_26_59  D59  1
    x_27_0  COST  788549  S27  1
    x_27_0  D0  1
    x_27_1  COST  433785  S27  1
    x_27_1  D1  1
    x_27_2  COST  236662  S27  1
    x_27_2  D2  1
    x_27_3  COST  423914  S27  1
    x_27_3  D3  1
    x_27_4  COST  827006  S27  1
    x_27_4  D4  1
    x_27_5  COST  693275  S27  1
    x_27_5  D5  1
    x_27_6  COST  57378  S27  1
    x_27_6  D6  1
    x_27_7  COST  996090  S27  1
    x_27_7  D7  1
    x_27_8  COST  571620  S27  1
    x_27_8  D8  1
    x_27_9  COST  35288  S27  1
    x_27_9  D9  1
    x_27_10  COST  947075  S27  1
    x_27_10  D10  1
    x_27_11  COST  432963  S27  1
    x_27_11  D11  1
    x_27_12  COST  20786  S27  1
    x_27_12  D12  1
    x_27_13  COST  94675  S27  1
    x_27_13  D13  1
    x_27_14  COST  709528  S27  1
    x_27_14  D14  1
    x_27_15  COST  947150  S27  1
    x_27_15  D15  1
    x_27_16  COST  389950  S27  1
    x_27_16  D16  1
    x_27_17  COST  584139  S27  1
    x_27_17  D17  1
    x_27_18  COST  704074  S27  1
    x_27_18  D18  1
    x_27_19  COST  641588  S27  1
    x_27_19  D19  1
    x_27_20  COST  25384  S27  1
    x_27_20  D20  1
    x_27_21  COST  990528  S27  1
    x_27_21  D21  1
    x_27_22  COST  452776  S27  1
    x_27_22  D22  1
    x_27_23  COST  288249  S27  1
    x_27_23  D23  1
    x_27_24  COST  320235  S27  1
    x_27_24  D24  1
    x_27_25  COST  648891  S27  1
    x_27_25  D25  1
    x_27_26  COST  697746  S27  1
    x_27_26  D26  1
    x_27_27  COST  275487  S27  1
    x_27_27  D27  1
    x_27_28  COST  956379  S27  1
    x_27_28  D28  1
    x_27_29  COST  718982  S27  1
    x_27_29  D29  1
    x_27_30  COST  800724  S27  1
    x_27_30  D30  1
    x_27_31  COST  283725  S27  1
    x_27_31  D31  1
    x_27_32  COST  239352  S27  1
    x_27_32  D32  1
    x_27_33  COST  676844  S27  1
    x_27_33  D33  1
    x_27_34  COST  914964  S27  1
    x_27_34  D34  1
    x_27_35  COST  296906  S27  1
    x_27_35  D35  1
    x_27_36  COST  534565  S27  1
    x_27_36  D36  1
    x_27_37  COST  179760  S27  1
    x_27_37  D37  1
    x_27_38  COST  683908  S27  1
    x_27_38  D38  1
    x_27_39  COST  808116  S27  1
    x_27_39  D39  1
    x_27_40  COST  269252  S27  1
    x_27_40  D40  1
    x_27_41  COST  408506  S27  1
    x_27_41  D41  1
    x_27_42  COST  242816  S27  1
    x_27_42  D42  1
    x_27_43  COST  443409  S27  1
    x_27_43  D43  1
    x_27_44  COST  652259  S27  1
    x_27_44  D44  1
    x_27_45  COST  878150  S27  1
    x_27_45  D45  1
    x_27_46  COST  88643  S27  1
    x_27_46  D46  1
    x_27_47  COST  633830  S27  1
    x_27_47  D47  1
    x_27_48  COST  880643  S27  1
    x_27_48  D48  1
    x_27_49  COST  993528  S27  1
    x_27_49  D49  1
    x_27_50  COST  954657  S27  1
    x_27_50  D50  1
    x_27_51  COST  731330  S27  1
    x_27_51  D51  1
    x_27_52  COST  904380  S27  1
    x_27_52  D52  1
    x_27_53  COST  153769  S27  1
    x_27_53  D53  1
    x_27_54  COST  91620  S27  1
    x_27_54  D54  1
    x_27_55  COST  383090  S27  1
    x_27_55  D55  1
    x_27_56  COST  818976  S27  1
    x_27_56  D56  1
    x_27_57  COST  12124  S27  1
    x_27_57  D57  1
    x_27_58  COST  349388  S27  1
    x_27_58  D58  1
    x_27_59  COST  200500  S27  1
    x_27_59  D59  1
    x_28_0  COST  602677  S28  1
    x_28_0  D0  1
    x_28_1  COST  711833  S28  1
    x_28_1  D1  1
    x_28_2  COST  149918  S28  1
    x_28_2  D2  1
    x_28_3  COST  143565  S28  1
    x_28_3  D3  1
    x_28_4  COST  174062  S28  1
    x_28_4  D4  1
    x_28_5  COST  393966  S28  1
    x_28_5  D5  1
    x_28_6  COST  159256  S28  1
    x_28_6  D6  1
    x_28_7  COST  142832  S28  1
    x_28_7  D7  1
    x_28_8  COST  359868  S28  1
    x_28_8  D8  1
    x_28_9  COST  491888  S28  1
    x_28_9  D9  1
    x_28_10  COST  466553  S28  1
    x_28_10  D10  1
    x_28_11  COST  15931  S28  1
    x_28_11  D11  1
    x_28_12  COST  970764  S28  1
    x_28_12  D12  1
    x_28_13  COST  694495  S28  1
    x_28_13  D13  1
    x_28_14  COST  757303  S28  1
    x_28_14  D14  1
    x_28_15  COST  29958  S28  1
    x_28_15  D15  1
    x_28_16  COST  854260  S28  1
    x_28_16  D16  1
    x_28_17  COST  998921  S28  1
    x_28_17  D17  1
    x_28_18  COST  87721  S28  1
    x_28_18  D18  1
    x_28_19  COST  704200  S28  1
    x_28_19  D19  1
    x_28_20  COST  611933  S28  1
    x_28_20  D20  1
    x_28_21  COST  466086  S28  1
    x_28_21  D21  1
    x_28_22  COST  295038  S28  1
    x_28_22  D22  1
    x_28_23  COST  536520  S28  1
    x_28_23  D23  1
    x_28_24  COST  439800  S28  1
    x_28_24  D24  1
    x_28_25  COST  761581  S28  1
    x_28_25  D25  1
    x_28_26  COST  556802  S28  1
    x_28_26  D26  1
    x_28_27  COST  205315  S28  1
    x_28_27  D27  1
    x_28_28  COST  280151  S28  1
    x_28_28  D28  1
    x_28_29  COST  744521  S28  1
    x_28_29  D29  1
    x_28_30  COST  725333  S28  1
    x_28_30  D30  1
    x_28_31  COST  880517  S28  1
    x_28_31  D31  1
    x_28_32  COST  255119  S28  1
    x_28_32  D32  1
    x_28_33  COST  60375  S28  1
    x_28_33  D33  1
    x_28_34  COST  502735  S28  1
    x_28_34  D34  1
    x_28_35  COST  908662  S28  1
    x_28_35  D35  1
    x_28_36  COST  826299  S28  1
    x_28_36  D36  1
    x_28_37  COST  996644  S28  1
    x_28_37  D37  1
    x_28_38  COST  688871  S28  1
    x_28_38  D38  1
    x_28_39  COST  493710  S28  1
    x_28_39  D39  1
    x_28_40  COST  923575  S28  1
    x_28_40  D40  1
    x_28_41  COST  929879  S28  1
    x_28_41  D41  1
    x_28_42  COST  857308  S28  1
    x_28_42  D42  1
    x_28_43  COST  119853  S28  1
    x_28_43  D43  1
    x_28_44  COST  286302  S28  1
    x_28_44  D44  1
    x_28_45  COST  391190  S28  1
    x_28_45  D45  1
    x_28_46  COST  669067  S28  1
    x_28_46  D46  1
    x_28_47  COST  185327  S28  1
    x_28_47  D47  1
    x_28_48  COST  761495  S28  1
    x_28_48  D48  1
    x_28_49  COST  35270  S28  1
    x_28_49  D49  1
    x_28_50  COST  480280  S28  1
    x_28_50  D50  1
    x_28_51  COST  252734  S28  1
    x_28_51  D51  1
    x_28_52  COST  758692  S28  1
    x_28_52  D52  1
    x_28_53  COST  856707  S28  1
    x_28_53  D53  1
    x_28_54  COST  450726  S28  1
    x_28_54  D54  1
    x_28_55  COST  389105  S28  1
    x_28_55  D55  1
    x_28_56  COST  86846  S28  1
    x_28_56  D56  1
    x_28_57  COST  408229  S28  1
    x_28_57  D57  1
    x_28_58  COST  474955  S28  1
    x_28_58  D58  1
    x_28_59  COST  917835  S28  1
    x_28_59  D59  1
    x_29_0  COST  121359  S29  1
    x_29_0  D0  1
    x_29_1  COST  973376  S29  1
    x_29_1  D1  1
    x_29_2  COST  368161  S29  1
    x_29_2  D2  1
    x_29_3  COST  938319  S29  1
    x_29_3  D3  1
    x_29_4  COST  817733  S29  1
    x_29_4  D4  1
    x_29_5  COST  812991  S29  1
    x_29_5  D5  1
    x_29_6  COST  173016  S29  1
    x_29_6  D6  1
    x_29_7  COST  127089  S29  1
    x_29_7  D7  1
    x_29_8  COST  559320  S29  1
    x_29_8  D8  1
    x_29_9  COST  580625  S29  1
    x_29_9  D9  1
    x_29_10  COST  978567  S29  1
    x_29_10  D10  1
    x_29_11  COST  833201  S29  1
    x_29_11  D11  1
    x_29_12  COST  996982  S29  1
    x_29_12  D12  1
    x_29_13  COST  70656  S29  1
    x_29_13  D13  1
    x_29_14  COST  866090  S29  1
    x_29_14  D14  1
    x_29_15  COST  753726  S29  1
    x_29_15  D15  1
    x_29_16  COST  603682  S29  1
    x_29_16  D16  1
    x_29_17  COST  423874  S29  1
    x_29_17  D17  1
    x_29_18  COST  963144  S29  1
    x_29_18  D18  1
    x_29_19  COST  896516  S29  1
    x_29_19  D19  1
    x_29_20  COST  885511  S29  1
    x_29_20  D20  1
    x_29_21  COST  18063  S29  1
    x_29_21  D21  1
    x_29_22  COST  168348  S29  1
    x_29_22  D22  1
    x_29_23  COST  994521  S29  1
    x_29_23  D23  1
    x_29_24  COST  377296  S29  1
    x_29_24  D24  1
    x_29_25  COST  227474  S29  1
    x_29_25  D25  1
    x_29_26  COST  851437  S29  1
    x_29_26  D26  1
    x_29_27  COST  683417  S29  1
    x_29_27  D27  1
    x_29_28  COST  614218  S29  1
    x_29_28  D28  1
    x_29_29  COST  855356  S29  1
    x_29_29  D29  1
    x_29_30  COST  461622  S29  1
    x_29_30  D30  1
    x_29_31  COST  459560  S29  1
    x_29_31  D31  1
    x_29_32  COST  109883  S29  1
    x_29_32  D32  1
    x_29_33  COST  510581  S29  1
    x_29_33  D33  1
    x_29_34  COST  445232  S29  1
    x_29_34  D34  1
    x_29_35  COST  774005  S29  1
    x_29_35  D35  1
    x_29_36  COST  439252  S29  1
    x_29_36  D36  1
    x_29_37  COST  464488  S29  1
    x_29_37  D37  1
    x_29_38  COST  790230  S29  1
    x_29_38  D38  1
    x_29_39  COST  35572  S29  1
    x_29_39  D39  1
    x_29_40  COST  918602  S29  1
    x_29_40  D40  1
    x_29_41  COST  519603  S29  1
    x_29_41  D41  1
    x_29_42  COST  171122  S29  1
    x_29_42  D42  1
    x_29_43  COST  516342  S29  1
    x_29_43  D43  1
    x_29_44  COST  126387  S29  1
    x_29_44  D44  1
    x_29_45  COST  133866  S29  1
    x_29_45  D45  1
    x_29_46  COST  429860  S29  1
    x_29_46  D46  1
    x_29_47  COST  961253  S29  1
    x_29_47  D47  1
    x_29_48  COST  659520  S29  1
    x_29_48  D48  1
    x_29_49  COST  285766  S29  1
    x_29_49  D49  1
    x_29_50  COST  343234  S29  1
    x_29_50  D50  1
    x_29_51  COST  502855  S29  1
    x_29_51  D51  1
    x_29_52  COST  763393  S29  1
    x_29_52  D52  1
    x_29_53  COST  643281  S29  1
    x_29_53  D53  1
    x_29_54  COST  696206  S29  1
    x_29_54  D54  1
    x_29_55  COST  876864  S29  1
    x_29_55  D55  1
    x_29_56  COST  65025  S29  1
    x_29_56  D56  1
    x_29_57  COST  649700  S29  1
    x_29_57  D57  1
    x_29_58  COST  830529  S29  1
    x_29_58  D58  1
    x_29_59  COST  161019  S29  1
    x_29_59  D59  1
    x_30_0  COST  374774  S30  1
    x_30_0  D0  1
    x_30_1  COST  969553  S30  1
    x_30_1  D1  1
    x_30_2  COST  648559  S30  1
    x_30_2  D2  1
    x_30_3  COST  489760  S30  1
    x_30_3  D3  1
    x_30_4  COST  651450  S30  1
    x_30_4  D4  1
    x_30_5  COST  870512  S30  1
    x_30_5  D5  1
    x_30_6  COST  700847  S30  1
    x_30_6  D6  1
    x_30_7  COST  627750  S30  1
    x_30_7  D7  1
    x_30_8  COST  670858  S30  1
    x_30_8  D8  1
    x_30_9  COST  499228  S30  1
    x_30_9  D9  1
    x_30_10  COST  644795  S30  1
    x_30_10  D10  1
    x_30_11  COST  526321  S30  1
    x_30_11  D11  1
    x_30_12  COST  178530  S30  1
    x_30_12  D12  1
    x_30_13  COST  738123  S30  1
    x_30_13  D13  1
    x_30_14  COST  619537  S30  1
    x_30_14  D14  1
    x_30_15  COST  124000  S30  1
    x_30_15  D15  1
    x_30_16  COST  764896  S30  1
    x_30_16  D16  1
    x_30_17  COST  381497  S30  1
    x_30_17  D17  1
    x_30_18  COST  864042  S30  1
    x_30_18  D18  1
    x_30_19  COST  539639  S30  1
    x_30_19  D19  1
    x_30_20  COST  73047  S30  1
    x_30_20  D20  1
    x_30_21  COST  383668  S30  1
    x_30_21  D21  1
    x_30_22  COST  778060  S30  1
    x_30_22  D22  1
    x_30_23  COST  280992  S30  1
    x_30_23  D23  1
    x_30_24  COST  42318  S30  1
    x_30_24  D24  1
    x_30_25  COST  855071  S30  1
    x_30_25  D25  1
    x_30_26  COST  528698  S30  1
    x_30_26  D26  1
    x_30_27  COST  390161  S30  1
    x_30_27  D27  1
    x_30_28  COST  465127  S30  1
    x_30_28  D28  1
    x_30_29  COST  985899  S30  1
    x_30_29  D29  1
    x_30_30  COST  373592  S30  1
    x_30_30  D30  1
    x_30_31  COST  588064  S30  1
    x_30_31  D31  1
    x_30_32  COST  969440  S30  1
    x_30_32  D32  1
    x_30_33  COST  647561  S30  1
    x_30_33  D33  1
    x_30_34  COST  248644  S30  1
    x_30_34  D34  1
    x_30_35  COST  994829  S30  1
    x_30_35  D35  1
    x_30_36  COST  951073  S30  1
    x_30_36  D36  1
    x_30_37  COST  628848  S30  1
    x_30_37  D37  1
    x_30_38  COST  123877  S30  1
    x_30_38  D38  1
    x_30_39  COST  248251  S30  1
    x_30_39  D39  1
    x_30_40  COST  72659  S30  1
    x_30_40  D40  1
    x_30_41  COST  416332  S30  1
    x_30_41  D41  1
    x_30_42  COST  802262  S30  1
    x_30_42  D42  1
    x_30_43  COST  512918  S30  1
    x_30_43  D43  1
    x_30_44  COST  89048  S30  1
    x_30_44  D44  1
    x_30_45  COST  374246  S30  1
    x_30_45  D45  1
    x_30_46  COST  546110  S30  1
    x_30_46  D46  1
    x_30_47  COST  321329  S30  1
    x_30_47  D47  1
    x_30_48  COST  42081  S30  1
    x_30_48  D48  1
    x_30_49  COST  365842  S30  1
    x_30_49  D49  1
    x_30_50  COST  609502  S30  1
    x_30_50  D50  1
    x_30_51  COST  379147  S30  1
    x_30_51  D51  1
    x_30_52  COST  516760  S30  1
    x_30_52  D52  1
    x_30_53  COST  304429  S30  1
    x_30_53  D53  1
    x_30_54  COST  117808  S30  1
    x_30_54  D54  1
    x_30_55  COST  727416  S30  1
    x_30_55  D55  1
    x_30_56  COST  224821  S30  1
    x_30_56  D56  1
    x_30_57  COST  975420  S30  1
    x_30_57  D57  1
    x_30_58  COST  956719  S30  1
    x_30_58  D58  1
    x_30_59  COST  236347  S30  1
    x_30_59  D59  1
    x_31_0  COST  705695  S31  1
    x_31_0  D0  1
    x_31_1  COST  92272  S31  1
    x_31_1  D1  1
    x_31_2  COST  810530  S31  1
    x_31_2  D2  1
    x_31_3  COST  397362  S31  1
    x_31_3  D3  1
    x_31_4  COST  59058  S31  1
    x_31_4  D4  1
    x_31_5  COST  367677  S31  1
    x_31_5  D5  1
    x_31_6  COST  885699  S31  1
    x_31_6  D6  1
    x_31_7  COST  590065  S31  1
    x_31_7  D7  1
    x_31_8  COST  995230  S31  1
    x_31_8  D8  1
    x_31_9  COST  874529  S31  1
    x_31_9  D9  1
    x_31_10  COST  567819  S31  1
    x_31_10  D10  1
    x_31_11  COST  937232  S31  1
    x_31_11  D11  1
    x_31_12  COST  36941  S31  1
    x_31_12  D12  1
    x_31_13  COST  319512  S31  1
    x_31_13  D13  1
    x_31_14  COST  519050  S31  1
    x_31_14  D14  1
    x_31_15  COST  979753  S31  1
    x_31_15  D15  1
    x_31_16  COST  18833  S31  1
    x_31_16  D16  1
    x_31_17  COST  265160  S31  1
    x_31_17  D17  1
    x_31_18  COST  394117  S31  1
    x_31_18  D18  1
    x_31_19  COST  805968  S31  1
    x_31_19  D19  1
    x_31_20  COST  496997  S31  1
    x_31_20  D20  1
    x_31_21  COST  267367  S31  1
    x_31_21  D21  1
    x_31_22  COST  504599  S31  1
    x_31_22  D22  1
    x_31_23  COST  651327  S31  1
    x_31_23  D23  1
    x_31_24  COST  385613  S31  1
    x_31_24  D24  1
    x_31_25  COST  201674  S31  1
    x_31_25  D25  1
    x_31_26  COST  812521  S31  1
    x_31_26  D26  1
    x_31_27  COST  778239  S31  1
    x_31_27  D27  1
    x_31_28  COST  11644  S31  1
    x_31_28  D28  1
    x_31_29  COST  514364  S31  1
    x_31_29  D29  1
    x_31_30  COST  297701  S31  1
    x_31_30  D30  1
    x_31_31  COST  789220  S31  1
    x_31_31  D31  1
    x_31_32  COST  659224  S31  1
    x_31_32  D32  1
    x_31_33  COST  745436  S31  1
    x_31_33  D33  1
    x_31_34  COST  988747  S31  1
    x_31_34  D34  1
    x_31_35  COST  392372  S31  1
    x_31_35  D35  1
    x_31_36  COST  282535  S31  1
    x_31_36  D36  1
    x_31_37  COST  392961  S31  1
    x_31_37  D37  1
    x_31_38  COST  688597  S31  1
    x_31_38  D38  1
    x_31_39  COST  470027  S31  1
    x_31_39  D39  1
    x_31_40  COST  277512  S31  1
    x_31_40  D40  1
    x_31_41  COST  80708  S31  1
    x_31_41  D41  1
    x_31_42  COST  722772  S31  1
    x_31_42  D42  1
    x_31_43  COST  324111  S31  1
    x_31_43  D43  1
    x_31_44  COST  116543  S31  1
    x_31_44  D44  1
    x_31_45  COST  867550  S31  1
    x_31_45  D45  1
    x_31_46  COST  248772  S31  1
    x_31_46  D46  1
    x_31_47  COST  835456  S31  1
    x_31_47  D47  1
    x_31_48  COST  586471  S31  1
    x_31_48  D48  1
    x_31_49  COST  625918  S31  1
    x_31_49  D49  1
    x_31_50  COST  51314  S31  1
    x_31_50  D50  1
    x_31_51  COST  465366  S31  1
    x_31_51  D51  1
    x_31_52  COST  469453  S31  1
    x_31_52  D52  1
    x_31_53  COST  163967  S31  1
    x_31_53  D53  1
    x_31_54  COST  562230  S31  1
    x_31_54  D54  1
    x_31_55  COST  819847  S31  1
    x_31_55  D55  1
    x_31_56  COST  315324  S31  1
    x_31_56  D56  1
    x_31_57  COST  547343  S31  1
    x_31_57  D57  1
    x_31_58  COST  667405  S31  1
    x_31_58  D58  1
    x_31_59  COST  313648  S31  1
    x_31_59  D59  1
    x_32_0  COST  213068  S32  1
    x_32_0  D0  1
    x_32_1  COST  20932  S32  1
    x_32_1  D1  1
    x_32_2  COST  268476  S32  1
    x_32_2  D2  1
    x_32_3  COST  740899  S32  1
    x_32_3  D3  1
    x_32_4  COST  330038  S32  1
    x_32_4  D4  1
    x_32_5  COST  835831  S32  1
    x_32_5  D5  1
    x_32_6  COST  793480  S32  1
    x_32_6  D6  1
    x_32_7  COST  494669  S32  1
    x_32_7  D7  1
    x_32_8  COST  187411  S32  1
    x_32_8  D8  1
    x_32_9  COST  275917  S32  1
    x_32_9  D9  1
    x_32_10  COST  114853  S32  1
    x_32_10  D10  1
    x_32_11  COST  156732  S32  1
    x_32_11  D11  1
    x_32_12  COST  282153  S32  1
    x_32_12  D12  1
    x_32_13  COST  636971  S32  1
    x_32_13  D13  1
    x_32_14  COST  171908  S32  1
    x_32_14  D14  1
    x_32_15  COST  881033  S32  1
    x_32_15  D15  1
    x_32_16  COST  733314  S32  1
    x_32_16  D16  1
    x_32_17  COST  343366  S32  1
    x_32_17  D17  1
    x_32_18  COST  616983  S32  1
    x_32_18  D18  1
    x_32_19  COST  215846  S32  1
    x_32_19  D19  1
    x_32_20  COST  691417  S32  1
    x_32_20  D20  1
    x_32_21  COST  741165  S32  1
    x_32_21  D21  1
    x_32_22  COST  62527  S32  1
    x_32_22  D22  1
    x_32_23  COST  438959  S32  1
    x_32_23  D23  1
    x_32_24  COST  201623  S32  1
    x_32_24  D24  1
    x_32_25  COST  916353  S32  1
    x_32_25  D25  1
    x_32_26  COST  15051  S32  1
    x_32_26  D26  1
    x_32_27  COST  141959  S32  1
    x_32_27  D27  1
    x_32_28  COST  880740  S32  1
    x_32_28  D28  1
    x_32_29  COST  887599  S32  1
    x_32_29  D29  1
    x_32_30  COST  953597  S32  1
    x_32_30  D30  1
    x_32_31  COST  654848  S32  1
    x_32_31  D31  1
    x_32_32  COST  540502  S32  1
    x_32_32  D32  1
    x_32_33  COST  979678  S32  1
    x_32_33  D33  1
    x_32_34  COST  171116  S32  1
    x_32_34  D34  1
    x_32_35  COST  213531  S32  1
    x_32_35  D35  1
    x_32_36  COST  725711  S32  1
    x_32_36  D36  1
    x_32_37  COST  599353  S32  1
    x_32_37  D37  1
    x_32_38  COST  673988  S32  1
    x_32_38  D38  1
    x_32_39  COST  71734  S32  1
    x_32_39  D39  1
    x_32_40  COST  186377  S32  1
    x_32_40  D40  1
    x_32_41  COST  490588  S32  1
    x_32_41  D41  1
    x_32_42  COST  663044  S32  1
    x_32_42  D42  1
    x_32_43  COST  28735  S32  1
    x_32_43  D43  1
    x_32_44  COST  212198  S32  1
    x_32_44  D44  1
    x_32_45  COST  265865  S32  1
    x_32_45  D45  1
    x_32_46  COST  538432  S32  1
    x_32_46  D46  1
    x_32_47  COST  740094  S32  1
    x_32_47  D47  1
    x_32_48  COST  827170  S32  1
    x_32_48  D48  1
    x_32_49  COST  646542  S32  1
    x_32_49  D49  1
    x_32_50  COST  574066  S32  1
    x_32_50  D50  1
    x_32_51  COST  364246  S32  1
    x_32_51  D51  1
    x_32_52  COST  75279  S32  1
    x_32_52  D52  1
    x_32_53  COST  554282  S32  1
    x_32_53  D53  1
    x_32_54  COST  65809  S32  1
    x_32_54  D54  1
    x_32_55  COST  497375  S32  1
    x_32_55  D55  1
    x_32_56  COST  509596  S32  1
    x_32_56  D56  1
    x_32_57  COST  334721  S32  1
    x_32_57  D57  1
    x_32_58  COST  358985  S32  1
    x_32_58  D58  1
    x_32_59  COST  690137  S32  1
    x_32_59  D59  1
    x_33_0  COST  11388  S33  1
    x_33_0  D0  1
    x_33_1  COST  913858  S33  1
    x_33_1  D1  1
    x_33_2  COST  722143  S33  1
    x_33_2  D2  1
    x_33_3  COST  345542  S33  1
    x_33_3  D3  1
    x_33_4  COST  80610  S33  1
    x_33_4  D4  1
    x_33_5  COST  995382  S33  1
    x_33_5  D5  1
    x_33_6  COST  869686  S33  1
    x_33_6  D6  1
    x_33_7  COST  187027  S33  1
    x_33_7  D7  1
    x_33_8  COST  225899  S33  1
    x_33_8  D8  1
    x_33_9  COST  361154  S33  1
    x_33_9  D9  1
    x_33_10  COST  245499  S33  1
    x_33_10  D10  1
    x_33_11  COST  256636  S33  1
    x_33_11  D11  1
    x_33_12  COST  622311  S33  1
    x_33_12  D12  1
    x_33_13  COST  60163  S33  1
    x_33_13  D13  1
    x_33_14  COST  989108  S33  1
    x_33_14  D14  1
    x_33_15  COST  688795  S33  1
    x_33_15  D15  1
    x_33_16  COST  648209  S33  1
    x_33_16  D16  1
    x_33_17  COST  329700  S33  1
    x_33_17  D17  1
    x_33_18  COST  380819  S33  1
    x_33_18  D18  1
    x_33_19  COST  443330  S33  1
    x_33_19  D19  1
    x_33_20  COST  420071  S33  1
    x_33_20  D20  1
    x_33_21  COST  234888  S33  1
    x_33_21  D21  1
    x_33_22  COST  792526  S33  1
    x_33_22  D22  1
    x_33_23  COST  439093  S33  1
    x_33_23  D23  1
    x_33_24  COST  815761  S33  1
    x_33_24  D24  1
    x_33_25  COST  677893  S33  1
    x_33_25  D25  1
    x_33_26  COST  582245  S33  1
    x_33_26  D26  1
    x_33_27  COST  638451  S33  1
    x_33_27  D27  1
    x_33_28  COST  327749  S33  1
    x_33_28  D28  1
    x_33_29  COST  691602  S33  1
    x_33_29  D29  1
    x_33_30  COST  939103  S33  1
    x_33_30  D30  1
    x_33_31  COST  389327  S33  1
    x_33_31  D31  1
    x_33_32  COST  924187  S33  1
    x_33_32  D32  1
    x_33_33  COST  510217  S33  1
    x_33_33  D33  1
    x_33_34  COST  767214  S33  1
    x_33_34  D34  1
    x_33_35  COST  516639  S33  1
    x_33_35  D35  1
    x_33_36  COST  432118  S33  1
    x_33_36  D36  1
    x_33_37  COST  181878  S33  1
    x_33_37  D37  1
    x_33_38  COST  151632  S33  1
    x_33_38  D38  1
    x_33_39  COST  974353  S33  1
    x_33_39  D39  1
    x_33_40  COST  879627  S33  1
    x_33_40  D40  1
    x_33_41  COST  723502  S33  1
    x_33_41  D41  1
    x_33_42  COST  283710  S33  1
    x_33_42  D42  1
    x_33_43  COST  117697  S33  1
    x_33_43  D43  1
    x_33_44  COST  58420  S33  1
    x_33_44  D44  1
    x_33_45  COST  235901  S33  1
    x_33_45  D45  1
    x_33_46  COST  243659  S33  1
    x_33_46  D46  1
    x_33_47  COST  346527  S33  1
    x_33_47  D47  1
    x_33_48  COST  900634  S33  1
    x_33_48  D48  1
    x_33_49  COST  870156  S33  1
    x_33_49  D49  1
    x_33_50  COST  223434  S33  1
    x_33_50  D50  1
    x_33_51  COST  54982  S33  1
    x_33_51  D51  1
    x_33_52  COST  779495  S33  1
    x_33_52  D52  1
    x_33_53  COST  474846  S33  1
    x_33_53  D53  1
    x_33_54  COST  237403  S33  1
    x_33_54  D54  1
    x_33_55  COST  318191  S33  1
    x_33_55  D55  1
    x_33_56  COST  659891  S33  1
    x_33_56  D56  1
    x_33_57  COST  331793  S33  1
    x_33_57  D57  1
    x_33_58  COST  860017  S33  1
    x_33_58  D58  1
    x_33_59  COST  403124  S33  1
    x_33_59  D59  1
    x_34_0  COST  916595  S34  1
    x_34_0  D0  1
    x_34_1  COST  243180  S34  1
    x_34_1  D1  1
    x_34_2  COST  748002  S34  1
    x_34_2  D2  1
    x_34_3  COST  579477  S34  1
    x_34_3  D3  1
    x_34_4  COST  51795  S34  1
    x_34_4  D4  1
    x_34_5  COST  532261  S34  1
    x_34_5  D5  1
    x_34_6  COST  829309  S34  1
    x_34_6  D6  1
    x_34_7  COST  218641  S34  1
    x_34_7  D7  1
    x_34_8  COST  455545  S34  1
    x_34_8  D8  1
    x_34_9  COST  631252  S34  1
    x_34_9  D9  1
    x_34_10  COST  669328  S34  1
    x_34_10  D10  1
    x_34_11  COST  13884  S34  1
    x_34_11  D11  1
    x_34_12  COST  756571  S34  1
    x_34_12  D12  1
    x_34_13  COST  599887  S34  1
    x_34_13  D13  1
    x_34_14  COST  455252  S34  1
    x_34_14  D14  1
    x_34_15  COST  450460  S34  1
    x_34_15  D15  1
    x_34_16  COST  139244  S34  1
    x_34_16  D16  1
    x_34_17  COST  80308  S34  1
    x_34_17  D17  1
    x_34_18  COST  38710  S34  1
    x_34_18  D18  1
    x_34_19  COST  705352  S34  1
    x_34_19  D19  1
    x_34_20  COST  930361  S34  1
    x_34_20  D20  1
    x_34_21  COST  41829  S34  1
    x_34_21  D21  1
    x_34_22  COST  327234  S34  1
    x_34_22  D22  1
    x_34_23  COST  414301  S34  1
    x_34_23  D23  1
    x_34_24  COST  572947  S34  1
    x_34_24  D24  1
    x_34_25  COST  889467  S34  1
    x_34_25  D25  1
    x_34_26  COST  697384  S34  1
    x_34_26  D26  1
    x_34_27  COST  372131  S34  1
    x_34_27  D27  1
    x_34_28  COST  249225  S34  1
    x_34_28  D28  1
    x_34_29  COST  613042  S34  1
    x_34_29  D29  1
    x_34_30  COST  870217  S34  1
    x_34_30  D30  1
    x_34_31  COST  620593  S34  1
    x_34_31  D31  1
    x_34_32  COST  503391  S34  1
    x_34_32  D32  1
    x_34_33  COST  97746  S34  1
    x_34_33  D33  1
    x_34_34  COST  660754  S34  1
    x_34_34  D34  1
    x_34_35  COST  820017  S34  1
    x_34_35  D35  1
    x_34_36  COST  345889  S34  1
    x_34_36  D36  1
    x_34_37  COST  603275  S34  1
    x_34_37  D37  1
    x_34_38  COST  47745  S34  1
    x_34_38  D38  1
    x_34_39  COST  418200  S34  1
    x_34_39  D39  1
    x_34_40  COST  544977  S34  1
    x_34_40  D40  1
    x_34_41  COST  462630  S34  1
    x_34_41  D41  1
    x_34_42  COST  652613  S34  1
    x_34_42  D42  1
    x_34_43  COST  868249  S34  1
    x_34_43  D43  1
    x_34_44  COST  634386  S34  1
    x_34_44  D44  1
    x_34_45  COST  867492  S34  1
    x_34_45  D45  1
    x_34_46  COST  979139  S34  1
    x_34_46  D46  1
    x_34_47  COST  479098  S34  1
    x_34_47  D47  1
    x_34_48  COST  776741  S34  1
    x_34_48  D48  1
    x_34_49  COST  343230  S34  1
    x_34_49  D49  1
    x_34_50  COST  911583  S34  1
    x_34_50  D50  1
    x_34_51  COST  859526  S34  1
    x_34_51  D51  1
    x_34_52  COST  758345  S34  1
    x_34_52  D52  1
    x_34_53  COST  377220  S34  1
    x_34_53  D53  1
    x_34_54  COST  616098  S34  1
    x_34_54  D54  1
    x_34_55  COST  548823  S34  1
    x_34_55  D55  1
    x_34_56  COST  790177  S34  1
    x_34_56  D56  1
    x_34_57  COST  82870  S34  1
    x_34_57  D57  1
    x_34_58  COST  199543  S34  1
    x_34_58  D58  1
    x_34_59  COST  134482  S34  1
    x_34_59  D59  1
    x_35_0  COST  441755  S35  1
    x_35_0  D0  1
    x_35_1  COST  869061  S35  1
    x_35_1  D1  1
    x_35_2  COST  740241  S35  1
    x_35_2  D2  1
    x_35_3  COST  963064  S35  1
    x_35_3  D3  1
    x_35_4  COST  890599  S35  1
    x_35_4  D4  1
    x_35_5  COST  92083  S35  1
    x_35_5  D5  1
    x_35_6  COST  3172  S35  1
    x_35_6  D6  1
    x_35_7  COST  625807  S35  1
    x_35_7  D7  1
    x_35_8  COST  896572  S35  1
    x_35_8  D8  1
    x_35_9  COST  770023  S35  1
    x_35_9  D9  1
    x_35_10  COST  582871  S35  1
    x_35_10  D10  1
    x_35_11  COST  893892  S35  1
    x_35_11  D11  1
    x_35_12  COST  240706  S35  1
    x_35_12  D12  1
    x_35_13  COST  118958  S35  1
    x_35_13  D13  1
    x_35_14  COST  18574  S35  1
    x_35_14  D14  1
    x_35_15  COST  946281  S35  1
    x_35_15  D15  1
    x_35_16  COST  675130  S35  1
    x_35_16  D16  1
    x_35_17  COST  976935  S35  1
    x_35_17  D17  1
    x_35_18  COST  725991  S35  1
    x_35_18  D18  1
    x_35_19  COST  182873  S35  1
    x_35_19  D19  1
    x_35_20  COST  759078  S35  1
    x_35_20  D20  1
    x_35_21  COST  855966  S35  1
    x_35_21  D21  1
    x_35_22  COST  740147  S35  1
    x_35_22  D22  1
    x_35_23  COST  491786  S35  1
    x_35_23  D23  1
    x_35_24  COST  331714  S35  1
    x_35_24  D24  1
    x_35_25  COST  839107  S35  1
    x_35_25  D25  1
    x_35_26  COST  115834  S35  1
    x_35_26  D26  1
    x_35_27  COST  406601  S35  1
    x_35_27  D27  1
    x_35_28  COST  376522  S35  1
    x_35_28  D28  1
    x_35_29  COST  286915  S35  1
    x_35_29  D29  1
    x_35_30  COST  109111  S35  1
    x_35_30  D30  1
    x_35_31  COST  690779  S35  1
    x_35_31  D31  1
    x_35_32  COST  759995  S35  1
    x_35_32  D32  1
    x_35_33  COST  675285  S35  1
    x_35_33  D33  1
    x_35_34  COST  692312  S35  1
    x_35_34  D34  1
    x_35_35  COST  758765  S35  1
    x_35_35  D35  1
    x_35_36  COST  896193  S35  1
    x_35_36  D36  1
    x_35_37  COST  804403  S35  1
    x_35_37  D37  1
    x_35_38  COST  603854  S35  1
    x_35_38  D38  1
    x_35_39  COST  394352  S35  1
    x_35_39  D39  1
    x_35_40  COST  903459  S35  1
    x_35_40  D40  1
    x_35_41  COST  142868  S35  1
    x_35_41  D41  1
    x_35_42  COST  215452  S35  1
    x_35_42  D42  1
    x_35_43  COST  87931  S35  1
    x_35_43  D43  1
    x_35_44  COST  631674  S35  1
    x_35_44  D44  1
    x_35_45  COST  633835  S35  1
    x_35_45  D45  1
    x_35_46  COST  509052  S35  1
    x_35_46  D46  1
    x_35_47  COST  574415  S35  1
    x_35_47  D47  1
    x_35_48  COST  474834  S35  1
    x_35_48  D48  1
    x_35_49  COST  449719  S35  1
    x_35_49  D49  1
    x_35_50  COST  702932  S35  1
    x_35_50  D50  1
    x_35_51  COST  610833  S35  1
    x_35_51  D51  1
    x_35_52  COST  738270  S35  1
    x_35_52  D52  1
    x_35_53  COST  830592  S35  1
    x_35_53  D53  1
    x_35_54  COST  839947  S35  1
    x_35_54  D54  1
    x_35_55  COST  976990  S35  1
    x_35_55  D55  1
    x_35_56  COST  366507  S35  1
    x_35_56  D56  1
    x_35_57  COST  927318  S35  1
    x_35_57  D57  1
    x_35_58  COST  51336  S35  1
    x_35_58  D58  1
    x_35_59  COST  854319  S35  1
    x_35_59  D59  1
    x_36_0  COST  353985  S36  1
    x_36_0  D0  1
    x_36_1  COST  307540  S36  1
    x_36_1  D1  1
    x_36_2  COST  558449  S36  1
    x_36_2  D2  1
    x_36_3  COST  857667  S36  1
    x_36_3  D3  1
    x_36_4  COST  142571  S36  1
    x_36_4  D4  1
    x_36_5  COST  655234  S36  1
    x_36_5  D5  1
    x_36_6  COST  526247  S36  1
    x_36_6  D6  1
    x_36_7  COST  565860  S36  1
    x_36_7  D7  1
    x_36_8  COST  517770  S36  1
    x_36_8  D8  1
    x_36_9  COST  63406  S36  1
    x_36_9  D9  1
    x_36_10  COST  76181  S36  1
    x_36_10  D10  1
    x_36_11  COST  333612  S36  1
    x_36_11  D11  1
    x_36_12  COST  396712  S36  1
    x_36_12  D12  1
    x_36_13  COST  848671  S36  1
    x_36_13  D13  1
    x_36_14  COST  256985  S36  1
    x_36_14  D14  1
    x_36_15  COST  716103  S36  1
    x_36_15  D15  1
    x_36_16  COST  527983  S36  1
    x_36_16  D16  1
    x_36_17  COST  131657  S36  1
    x_36_17  D17  1
    x_36_18  COST  212410  S36  1
    x_36_18  D18  1
    x_36_19  COST  860030  S36  1
    x_36_19  D19  1
    x_36_20  COST  868020  S36  1
    x_36_20  D20  1
    x_36_21  COST  676322  S36  1
    x_36_21  D21  1
    x_36_22  COST  210474  S36  1
    x_36_22  D22  1
    x_36_23  COST  907661  S36  1
    x_36_23  D23  1
    x_36_24  COST  392075  S36  1
    x_36_24  D24  1
    x_36_25  COST  461134  S36  1
    x_36_25  D25  1
    x_36_26  COST  53846  S36  1
    x_36_26  D26  1
    x_36_27  COST  23753  S36  1
    x_36_27  D27  1
    x_36_28  COST  588456  S36  1
    x_36_28  D28  1
    x_36_29  COST  214628  S36  1
    x_36_29  D29  1
    x_36_30  COST  974744  S36  1
    x_36_30  D30  1
    x_36_31  COST  839330  S36  1
    x_36_31  D31  1
    x_36_32  COST  355263  S36  1
    x_36_32  D32  1
    x_36_33  COST  657287  S36  1
    x_36_33  D33  1
    x_36_34  COST  767631  S36  1
    x_36_34  D34  1
    x_36_35  COST  505924  S36  1
    x_36_35  D35  1
    x_36_36  COST  583925  S36  1
    x_36_36  D36  1
    x_36_37  COST  716604  S36  1
    x_36_37  D37  1
    x_36_38  COST  61911  S36  1
    x_36_38  D38  1
    x_36_39  COST  680650  S36  1
    x_36_39  D39  1
    x_36_40  COST  165042  S36  1
    x_36_40  D40  1
    x_36_41  COST  411172  S36  1
    x_36_41  D41  1
    x_36_42  COST  132661  S36  1
    x_36_42  D42  1
    x_36_43  COST  683106  S36  1
    x_36_43  D43  1
    x_36_44  COST  603266  S36  1
    x_36_44  D44  1
    x_36_45  COST  675874  S36  1
    x_36_45  D45  1
    x_36_46  COST  924083  S36  1
    x_36_46  D46  1
    x_36_47  COST  134240  S36  1
    x_36_47  D47  1
    x_36_48  COST  227097  S36  1
    x_36_48  D48  1
    x_36_49  COST  597556  S36  1
    x_36_49  D49  1
    x_36_50  COST  275268  S36  1
    x_36_50  D50  1
    x_36_51  COST  273123  S36  1
    x_36_51  D51  1
    x_36_52  COST  865546  S36  1
    x_36_52  D52  1
    x_36_53  COST  817775  S36  1
    x_36_53  D53  1
    x_36_54  COST  593200  S36  1
    x_36_54  D54  1
    x_36_55  COST  922158  S36  1
    x_36_55  D55  1
    x_36_56  COST  651884  S36  1
    x_36_56  D56  1
    x_36_57  COST  198116  S36  1
    x_36_57  D57  1
    x_36_58  COST  391641  S36  1
    x_36_58  D58  1
    x_36_59  COST  647349  S36  1
    x_36_59  D59  1
    x_37_0  COST  894011  S37  1
    x_37_0  D0  1
    x_37_1  COST  249118  S37  1
    x_37_1  D1  1
    x_37_2  COST  522595  S37  1
    x_37_2  D2  1
    x_37_3  COST  655177  S37  1
    x_37_3  D3  1
    x_37_4  COST  911635  S37  1
    x_37_4  D4  1
    x_37_5  COST  892690  S37  1
    x_37_5  D5  1
    x_37_6  COST  131855  S37  1
    x_37_6  D6  1
    x_37_7  COST  162632  S37  1
    x_37_7  D7  1
    x_37_8  COST  517719  S37  1
    x_37_8  D8  1
    x_37_9  COST  664890  S37  1
    x_37_9  D9  1
    x_37_10  COST  802360  S37  1
    x_37_10  D10  1
    x_37_11  COST  557953  S37  1
    x_37_11  D11  1
    x_37_12  COST  681375  S37  1
    x_37_12  D12  1
    x_37_13  COST  404247  S37  1
    x_37_13  D13  1
    x_37_14  COST  184992  S37  1
    x_37_14  D14  1
    x_37_15  COST  207623  S37  1
    x_37_15  D15  1
    x_37_16  COST  535560  S37  1
    x_37_16  D16  1
    x_37_17  COST  580515  S37  1
    x_37_17  D17  1
    x_37_18  COST  738587  S37  1
    x_37_18  D18  1
    x_37_19  COST  226  S37  1
    x_37_19  D19  1
    x_37_20  COST  552996  S37  1
    x_37_20  D20  1
    x_37_21  COST  998663  S37  1
    x_37_21  D21  1
    x_37_22  COST  189049  S37  1
    x_37_22  D22  1
    x_37_23  COST  47635  S37  1
    x_37_23  D23  1
    x_37_24  COST  565774  S37  1
    x_37_24  D24  1
    x_37_25  COST  530981  S37  1
    x_37_25  D25  1
    x_37_26  COST  405460  S37  1
    x_37_26  D26  1
    x_37_27  COST  459241  S37  1
    x_37_27  D27  1
    x_37_28  COST  286603  S37  1
    x_37_28  D28  1
    x_37_29  COST  722211  S37  1
    x_37_29  D29  1
    x_37_30  COST  205657  S37  1
    x_37_30  D30  1
    x_37_31  COST  375706  S37  1
    x_37_31  D31  1
    x_37_32  COST  633951  S37  1
    x_37_32  D32  1
    x_37_33  COST  274010  S37  1
    x_37_33  D33  1
    x_37_34  COST  148177  S37  1
    x_37_34  D34  1
    x_37_35  COST  713624  S37  1
    x_37_35  D35  1
    x_37_36  COST  58728  S37  1
    x_37_36  D36  1
    x_37_37  COST  84845  S37  1
    x_37_37  D37  1
    x_37_38  COST  26194  S37  1
    x_37_38  D38  1
    x_37_39  COST  362129  S37  1
    x_37_39  D39  1
    x_37_40  COST  680241  S37  1
    x_37_40  D40  1
    x_37_41  COST  507621  S37  1
    x_37_41  D41  1
    x_37_42  COST  369213  S37  1
    x_37_42  D42  1
    x_37_43  COST  163412  S37  1
    x_37_43  D43  1
    x_37_44  COST  841850  S37  1
    x_37_44  D44  1
    x_37_45  COST  854678  S37  1
    x_37_45  D45  1
    x_37_46  COST  674148  S37  1
    x_37_46  D46  1
    x_37_47  COST  472628  S37  1
    x_37_47  D47  1
    x_37_48  COST  591002  S37  1
    x_37_48  D48  1
    x_37_49  COST  808161  S37  1
    x_37_49  D49  1
    x_37_50  COST  564822  S37  1
    x_37_50  D50  1
    x_37_51  COST  810489  S37  1
    x_37_51  D51  1
    x_37_52  COST  373766  S37  1
    x_37_52  D52  1
    x_37_53  COST  571425  S37  1
    x_37_53  D53  1
    x_37_54  COST  331855  S37  1
    x_37_54  D54  1
    x_37_55  COST  414031  S37  1
    x_37_55  D55  1
    x_37_56  COST  187055  S37  1
    x_37_56  D56  1
    x_37_57  COST  565187  S37  1
    x_37_57  D57  1
    x_37_58  COST  749070  S37  1
    x_37_58  D58  1
    x_37_59  COST  37991  S37  1
    x_37_59  D59  1
    x_38_0  COST  650700  S38  1
    x_38_0  D0  1
    x_38_1  COST  11127  S38  1
    x_38_1  D1  1
    x_38_2  COST  807668  S38  1
    x_38_2  D2  1
    x_38_3  COST  804559  S38  1
    x_38_3  D3  1
    x_38_4  COST  936648  S38  1
    x_38_4  D4  1
    x_38_5  COST  830130  S38  1
    x_38_5  D5  1
    x_38_6  COST  755394  S38  1
    x_38_6  D6  1
    x_38_7  COST  968487  S38  1
    x_38_7  D7  1
    x_38_8  COST  26673  S38  1
    x_38_8  D8  1
    x_38_9  COST  871766  S38  1
    x_38_9  D9  1
    x_38_10  COST  785418  S38  1
    x_38_10  D10  1
    x_38_11  COST  694305  S38  1
    x_38_11  D11  1
    x_38_12  COST  852518  S38  1
    x_38_12  D12  1
    x_38_13  COST  648560  S38  1
    x_38_13  D13  1
    x_38_14  COST  737865  S38  1
    x_38_14  D14  1
    x_38_15  COST  54964  S38  1
    x_38_15  D15  1
    x_38_16  COST  517656  S38  1
    x_38_16  D16  1
    x_38_17  COST  136619  S38  1
    x_38_17  D17  1
    x_38_18  COST  629826  S38  1
    x_38_18  D18  1
    x_38_19  COST  887696  S38  1
    x_38_19  D19  1
    x_38_20  COST  828745  S38  1
    x_38_20  D20  1
    x_38_21  COST  414846  S38  1
    x_38_21  D21  1
    x_38_22  COST  928816  S38  1
    x_38_22  D22  1
    x_38_23  COST  877940  S38  1
    x_38_23  D23  1
    x_38_24  COST  662793  S38  1
    x_38_24  D24  1
    x_38_25  COST  369135  S38  1
    x_38_25  D25  1
    x_38_26  COST  115314  S38  1
    x_38_26  D26  1
    x_38_27  COST  82376  S38  1
    x_38_27  D27  1
    x_38_28  COST  965580  S38  1
    x_38_28  D28  1
    x_38_29  COST  783815  S38  1
    x_38_29  D29  1
    x_38_30  COST  273489  S38  1
    x_38_30  D30  1
    x_38_31  COST  799241  S38  1
    x_38_31  D31  1
    x_38_32  COST  909639  S38  1
    x_38_32  D32  1
    x_38_33  COST  756639  S38  1
    x_38_33  D33  1
    x_38_34  COST  832106  S38  1
    x_38_34  D34  1
    x_38_35  COST  358125  S38  1
    x_38_35  D35  1
    x_38_36  COST  679811  S38  1
    x_38_36  D36  1
    x_38_37  COST  883918  S38  1
    x_38_37  D37  1
    x_38_38  COST  362722  S38  1
    x_38_38  D38  1
    x_38_39  COST  551212  S38  1
    x_38_39  D39  1
    x_38_40  COST  52819  S38  1
    x_38_40  D40  1
    x_38_41  COST  730587  S38  1
    x_38_41  D41  1
    x_38_42  COST  788653  S38  1
    x_38_42  D42  1
    x_38_43  COST  736849  S38  1
    x_38_43  D43  1
    x_38_44  COST  246456  S38  1
    x_38_44  D44  1
    x_38_45  COST  208956  S38  1
    x_38_45  D45  1
    x_38_46  COST  231758  S38  1
    x_38_46  D46  1
    x_38_47  COST  737570  S38  1
    x_38_47  D47  1
    x_38_48  COST  27046  S38  1
    x_38_48  D48  1
    x_38_49  COST  611018  S38  1
    x_38_49  D49  1
    x_38_50  COST  298399  S38  1
    x_38_50  D50  1
    x_38_51  COST  857981  S38  1
    x_38_51  D51  1
    x_38_52  COST  891485  S38  1
    x_38_52  D52  1
    x_38_53  COST  789797  S38  1
    x_38_53  D53  1
    x_38_54  COST  30731  S38  1
    x_38_54  D54  1
    x_38_55  COST  802876  S38  1
    x_38_55  D55  1
    x_38_56  COST  751901  S38  1
    x_38_56  D56  1
    x_38_57  COST  6488  S38  1
    x_38_57  D57  1
    x_38_58  COST  959767  S38  1
    x_38_58  D58  1
    x_38_59  COST  602443  S38  1
    x_38_59  D59  1
    x_39_0  COST  278464  S39  1
    x_39_0  D0  1
    x_39_1  COST  845287  S39  1
    x_39_1  D1  1
    x_39_2  COST  409844  S39  1
    x_39_2  D2  1
    x_39_3  COST  561578  S39  1
    x_39_3  D3  1
    x_39_4  COST  782665  S39  1
    x_39_4  D4  1
    x_39_5  COST  840807  S39  1
    x_39_5  D5  1
    x_39_6  COST  134773  S39  1
    x_39_6  D6  1
    x_39_7  COST  86869  S39  1
    x_39_7  D7  1
    x_39_8  COST  16672  S39  1
    x_39_8  D8  1
    x_39_9  COST  597187  S39  1
    x_39_9  D9  1
    x_39_10  COST  426814  S39  1
    x_39_10  D10  1
    x_39_11  COST  865  S39  1
    x_39_11  D11  1
    x_39_12  COST  996762  S39  1
    x_39_12  D12  1
    x_39_13  COST  830972  S39  1
    x_39_13  D13  1
    x_39_14  COST  376778  S39  1
    x_39_14  D14  1
    x_39_15  COST  214806  S39  1
    x_39_15  D15  1
    x_39_16  COST  472762  S39  1
    x_39_16  D16  1
    x_39_17  COST  59187  S39  1
    x_39_17  D17  1
    x_39_18  COST  744053  S39  1
    x_39_18  D18  1
    x_39_19  COST  815783  S39  1
    x_39_19  D19  1
    x_39_20  COST  347529  S39  1
    x_39_20  D20  1
    x_39_21  COST  797042  S39  1
    x_39_21  D21  1
    x_39_22  COST  543175  S39  1
    x_39_22  D22  1
    x_39_23  COST  174988  S39  1
    x_39_23  D23  1
    x_39_24  COST  8428  S39  1
    x_39_24  D24  1
    x_39_25  COST  282047  S39  1
    x_39_25  D25  1
    x_39_26  COST  988633  S39  1
    x_39_26  D26  1
    x_39_27  COST  528706  S39  1
    x_39_27  D27  1
    x_39_28  COST  276119  S39  1
    x_39_28  D28  1
    x_39_29  COST  869266  S39  1
    x_39_29  D29  1
    x_39_30  COST  29893  S39  1
    x_39_30  D30  1
    x_39_31  COST  788101  S39  1
    x_39_31  D31  1
    x_39_32  COST  346398  S39  1
    x_39_32  D32  1
    x_39_33  COST  527858  S39  1
    x_39_33  D33  1
    x_39_34  COST  61357  S39  1
    x_39_34  D34  1
    x_39_35  COST  813191  S39  1
    x_39_35  D35  1
    x_39_36  COST  327634  S39  1
    x_39_36  D36  1
    x_39_37  COST  247939  S39  1
    x_39_37  D37  1
    x_39_38  COST  161013  S39  1
    x_39_38  D38  1
    x_39_39  COST  156911  S39  1
    x_39_39  D39  1
    x_39_40  COST  802430  S39  1
    x_39_40  D40  1
    x_39_41  COST  63780  S39  1
    x_39_41  D41  1
    x_39_42  COST  986399  S39  1
    x_39_42  D42  1
    x_39_43  COST  777488  S39  1
    x_39_43  D43  1
    x_39_44  COST  579792  S39  1
    x_39_44  D44  1
    x_39_45  COST  204660  S39  1
    x_39_45  D45  1
    x_39_46  COST  805273  S39  1
    x_39_46  D46  1
    x_39_47  COST  547534  S39  1
    x_39_47  D47  1
    x_39_48  COST  289354  S39  1
    x_39_48  D48  1
    x_39_49  COST  67746  S39  1
    x_39_49  D49  1
    x_39_50  COST  755031  S39  1
    x_39_50  D50  1
    x_39_51  COST  232038  S39  1
    x_39_51  D51  1
    x_39_52  COST  481805  S39  1
    x_39_52  D52  1
    x_39_53  COST  531395  S39  1
    x_39_53  D53  1
    x_39_54  COST  776805  S39  1
    x_39_54  D54  1
    x_39_55  COST  240882  S39  1
    x_39_55  D55  1
    x_39_56  COST  903109  S39  1
    x_39_56  D56  1
    x_39_57  COST  557185  S39  1
    x_39_57  D57  1
    x_39_58  COST  650421  S39  1
    x_39_58  D58  1
    x_39_59  COST  984067  S39  1
    x_39_59  D59  1
    x_40_0  COST  366353  S40  1
    x_40_0  D0  1
    x_40_1  COST  901342  S40  1
    x_40_1  D1  1
    x_40_2  COST  105455  S40  1
    x_40_2  D2  1
    x_40_3  COST  714437  S40  1
    x_40_3  D3  1
    x_40_4  COST  312551  S40  1
    x_40_4  D4  1
    x_40_5  COST  180186  S40  1
    x_40_5  D5  1
    x_40_6  COST  888263  S40  1
    x_40_6  D6  1
    x_40_7  COST  472696  S40  1
    x_40_7  D7  1
    x_40_8  COST  353063  S40  1
    x_40_8  D8  1
    x_40_9  COST  693590  S40  1
    x_40_9  D9  1
    x_40_10  COST  852559  S40  1
    x_40_10  D10  1
    x_40_11  COST  597361  S40  1
    x_40_11  D11  1
    x_40_12  COST  818051  S40  1
    x_40_12  D12  1
    x_40_13  COST  478405  S40  1
    x_40_13  D13  1
    x_40_14  COST  475015  S40  1
    x_40_14  D14  1
    x_40_15  COST  89564  S40  1
    x_40_15  D15  1
    x_40_16  COST  821135  S40  1
    x_40_16  D16  1
    x_40_17  COST  386777  S40  1
    x_40_17  D17  1
    x_40_18  COST  965477  S40  1
    x_40_18  D18  1
    x_40_19  COST  114619  S40  1
    x_40_19  D19  1
    x_40_20  COST  509970  S40  1
    x_40_20  D20  1
    x_40_21  COST  738676  S40  1
    x_40_21  D21  1
    x_40_22  COST  989565  S40  1
    x_40_22  D22  1
    x_40_23  COST  469658  S40  1
    x_40_23  D23  1
    x_40_24  COST  5637  S40  1
    x_40_24  D24  1
    x_40_25  COST  601954  S40  1
    x_40_25  D25  1
    x_40_26  COST  702852  S40  1
    x_40_26  D26  1
    x_40_27  COST  625817  S40  1
    x_40_27  D27  1
    x_40_28  COST  751538  S40  1
    x_40_28  D28  1
    x_40_29  COST  697869  S40  1
    x_40_29  D29  1
    x_40_30  COST  187801  S40  1
    x_40_30  D30  1
    x_40_31  COST  432995  S40  1
    x_40_31  D31  1
    x_40_32  COST  490262  S40  1
    x_40_32  D32  1
    x_40_33  COST  779126  S40  1
    x_40_33  D33  1
    x_40_34  COST  848515  S40  1
    x_40_34  D34  1
    x_40_35  COST  494990  S40  1
    x_40_35  D35  1
    x_40_36  COST  82256  S40  1
    x_40_36  D36  1
    x_40_37  COST  13418  S40  1
    x_40_37  D37  1
    x_40_38  COST  219664  S40  1
    x_40_38  D38  1
    x_40_39  COST  85636  S40  1
    x_40_39  D39  1
    x_40_40  COST  788555  S40  1
    x_40_40  D40  1
    x_40_41  COST  183495  S40  1
    x_40_41  D41  1
    x_40_42  COST  880708  S40  1
    x_40_42  D42  1
    x_40_43  COST  441798  S40  1
    x_40_43  D43  1
    x_40_44  COST  835797  S40  1
    x_40_44  D44  1
    x_40_45  COST  435270  S40  1
    x_40_45  D45  1
    x_40_46  COST  830076  S40  1
    x_40_46  D46  1
    x_40_47  COST  797269  S40  1
    x_40_47  D47  1
    x_40_48  COST  880207  S40  1
    x_40_48  D48  1
    x_40_49  COST  381924  S40  1
    x_40_49  D49  1
    x_40_50  COST  27430  S40  1
    x_40_50  D50  1
    x_40_51  COST  831402  S40  1
    x_40_51  D51  1
    x_40_52  COST  414086  S40  1
    x_40_52  D52  1
    x_40_53  COST  290397  S40  1
    x_40_53  D53  1
    x_40_54  COST  378576  S40  1
    x_40_54  D54  1
    x_40_55  COST  951028  S40  1
    x_40_55  D55  1
    x_40_56  COST  410838  S40  1
    x_40_56  D56  1
    x_40_57  COST  481821  S40  1
    x_40_57  D57  1
    x_40_58  COST  806666  S40  1
    x_40_58  D58  1
    x_40_59  COST  828878  S40  1
    x_40_59  D59  1
    x_41_0  COST  223705  S41  1
    x_41_0  D0  1
    x_41_1  COST  962083  S41  1
    x_41_1  D1  1
    x_41_2  COST  476750  S41  1
    x_41_2  D2  1
    x_41_3  COST  643698  S41  1
    x_41_3  D3  1
    x_41_4  COST  764867  S41  1
    x_41_4  D4  1
    x_41_5  COST  623738  S41  1
    x_41_5  D5  1
    x_41_6  COST  979531  S41  1
    x_41_6  D6  1
    x_41_7  COST  793835  S41  1
    x_41_7  D7  1
    x_41_8  COST  10213  S41  1
    x_41_8  D8  1
    x_41_9  COST  428533  S41  1
    x_41_9  D9  1
    x_41_10  COST  904888  S41  1
    x_41_10  D10  1
    x_41_11  COST  711796  S41  1
    x_41_11  D11  1
    x_41_12  COST  718951  S41  1
    x_41_12  D12  1
    x_41_13  COST  643061  S41  1
    x_41_13  D13  1
    x_41_14  COST  944486  S41  1
    x_41_14  D14  1
    x_41_15  COST  192728  S41  1
    x_41_15  D15  1
    x_41_16  COST  356278  S41  1
    x_41_16  D16  1
    x_41_17  COST  679155  S41  1
    x_41_17  D17  1
    x_41_18  COST  734580  S41  1
    x_41_18  D18  1
    x_41_19  COST  872842  S41  1
    x_41_19  D19  1
    x_41_20  COST  213975  S41  1
    x_41_20  D20  1
    x_41_21  COST  593855  S41  1
    x_41_21  D21  1
    x_41_22  COST  121097  S41  1
    x_41_22  D22  1
    x_41_23  COST  266756  S41  1
    x_41_23  D23  1
    x_41_24  COST  68687  S41  1
    x_41_24  D24  1
    x_41_25  COST  724839  S41  1
    x_41_25  D25  1
    x_41_26  COST  684170  S41  1
    x_41_26  D26  1
    x_41_27  COST  436448  S41  1
    x_41_27  D27  1
    x_41_28  COST  363725  S41  1
    x_41_28  D28  1
    x_41_29  COST  918916  S41  1
    x_41_29  D29  1
    x_41_30  COST  894068  S41  1
    x_41_30  D30  1
    x_41_31  COST  175120  S41  1
    x_41_31  D31  1
    x_41_32  COST  605671  S41  1
    x_41_32  D32  1
    x_41_33  COST  961874  S41  1
    x_41_33  D33  1
    x_41_34  COST  280186  S41  1
    x_41_34  D34  1
    x_41_35  COST  754230  S41  1
    x_41_35  D35  1
    x_41_36  COST  145985  S41  1
    x_41_36  D36  1
    x_41_37  COST  720751  S41  1
    x_41_37  D37  1
    x_41_38  COST  36406  S41  1
    x_41_38  D38  1
    x_41_39  COST  541701  S41  1
    x_41_39  D39  1
    x_41_40  COST  230006  S41  1
    x_41_40  D40  1
    x_41_41  COST  904426  S41  1
    x_41_41  D41  1
    x_41_42  COST  912012  S41  1
    x_41_42  D42  1
    x_41_43  COST  248464  S41  1
    x_41_43  D43  1
    x_41_44  COST  443554  S41  1
    x_41_44  D44  1
    x_41_45  COST  180211  S41  1
    x_41_45  D45  1
    x_41_46  COST  267689  S41  1
    x_41_46  D46  1
    x_41_47  COST  446592  S41  1
    x_41_47  D47  1
    x_41_48  COST  217356  S41  1
    x_41_48  D48  1
    x_41_49  COST  944985  S41  1
    x_41_49  D49  1
    x_41_50  COST  432820  S41  1
    x_41_50  D50  1
    x_41_51  COST  603824  S41  1
    x_41_51  D51  1
    x_41_52  COST  19355  S41  1
    x_41_52  D52  1
    x_41_53  COST  278327  S41  1
    x_41_53  D53  1
    x_41_54  COST  718027  S41  1
    x_41_54  D54  1
    x_41_55  COST  686068  S41  1
    x_41_55  D55  1
    x_41_56  COST  116393  S41  1
    x_41_56  D56  1
    x_41_57  COST  562774  S41  1
    x_41_57  D57  1
    x_41_58  COST  93610  S41  1
    x_41_58  D58  1
    x_41_59  COST  675844  S41  1
    x_41_59  D59  1
    x_42_0  COST  447262  S42  1
    x_42_0  D0  1
    x_42_1  COST  84464  S42  1
    x_42_1  D1  1
    x_42_2  COST  97215  S42  1
    x_42_2  D2  1
    x_42_3  COST  766125  S42  1
    x_42_3  D3  1
    x_42_4  COST  495359  S42  1
    x_42_4  D4  1
    x_42_5  COST  832770  S42  1
    x_42_5  D5  1
    x_42_6  COST  801960  S42  1
    x_42_6  D6  1
    x_42_7  COST  109093  S42  1
    x_42_7  D7  1
    x_42_8  COST  108882  S42  1
    x_42_8  D8  1
    x_42_9  COST  964167  S42  1
    x_42_9  D9  1
    x_42_10  COST  538050  S42  1
    x_42_10  D10  1
    x_42_11  COST  726155  S42  1
    x_42_11  D11  1
    x_42_12  COST  758343  S42  1
    x_42_12  D12  1
    x_42_13  COST  452646  S42  1
    x_42_13  D13  1
    x_42_14  COST  446379  S42  1
    x_42_14  D14  1
    x_42_15  COST  499300  S42  1
    x_42_15  D15  1
    x_42_16  COST  959288  S42  1
    x_42_16  D16  1
    x_42_17  COST  143874  S42  1
    x_42_17  D17  1
    x_42_18  COST  90088  S42  1
    x_42_18  D18  1
    x_42_19  COST  9148  S42  1
    x_42_19  D19  1
    x_42_20  COST  704811  S42  1
    x_42_20  D20  1
    x_42_21  COST  475627  S42  1
    x_42_21  D21  1
    x_42_22  COST  291414  S42  1
    x_42_22  D22  1
    x_42_23  COST  965245  S42  1
    x_42_23  D23  1
    x_42_24  COST  353523  S42  1
    x_42_24  D24  1
    x_42_25  COST  963  S42  1
    x_42_25  D25  1
    x_42_26  COST  583152  S42  1
    x_42_26  D26  1
    x_42_27  COST  645331  S42  1
    x_42_27  D27  1
    x_42_28  COST  569871  S42  1
    x_42_28  D28  1
    x_42_29  COST  215926  S42  1
    x_42_29  D29  1
    x_42_30  COST  698514  S42  1
    x_42_30  D30  1
    x_42_31  COST  51157  S42  1
    x_42_31  D31  1
    x_42_32  COST  144345  S42  1
    x_42_32  D32  1
    x_42_33  COST  280038  S42  1
    x_42_33  D33  1
    x_42_34  COST  399327  S42  1
    x_42_34  D34  1
    x_42_35  COST  947258  S42  1
    x_42_35  D35  1
    x_42_36  COST  399840  S42  1
    x_42_36  D36  1
    x_42_37  COST  538827  S42  1
    x_42_37  D37  1
    x_42_38  COST  155486  S42  1
    x_42_38  D38  1
    x_42_39  COST  836943  S42  1
    x_42_39  D39  1
    x_42_40  COST  342948  S42  1
    x_42_40  D40  1
    x_42_41  COST  475714  S42  1
    x_42_41  D41  1
    x_42_42  COST  310369  S42  1
    x_42_42  D42  1
    x_42_43  COST  220  S42  1
    x_42_43  D43  1
    x_42_44  COST  905315  S42  1
    x_42_44  D44  1
    x_42_45  COST  494649  S42  1
    x_42_45  D45  1
    x_42_46  COST  291230  S42  1
    x_42_46  D46  1
    x_42_47  COST  36615  S42  1
    x_42_47  D47  1
    x_42_48  COST  352534  S42  1
    x_42_48  D48  1
    x_42_49  COST  110485  S42  1
    x_42_49  D49  1
    x_42_50  COST  31813  S42  1
    x_42_50  D50  1
    x_42_51  COST  361302  S42  1
    x_42_51  D51  1
    x_42_52  COST  217161  S42  1
    x_42_52  D52  1
    x_42_53  COST  102654  S42  1
    x_42_53  D53  1
    x_42_54  COST  952134  S42  1
    x_42_54  D54  1
    x_42_55  COST  873269  S42  1
    x_42_55  D55  1
    x_42_56  COST  98692  S42  1
    x_42_56  D56  1
    x_42_57  COST  611627  S42  1
    x_42_57  D57  1
    x_42_58  COST  23027  S42  1
    x_42_58  D58  1
    x_42_59  COST  270009  S42  1
    x_42_59  D59  1
    x_43_0  COST  504608  S43  1
    x_43_0  D0  1
    x_43_1  COST  380230  S43  1
    x_43_1  D1  1
    x_43_2  COST  322627  S43  1
    x_43_2  D2  1
    x_43_3  COST  877255  S43  1
    x_43_3  D3  1
    x_43_4  COST  661852  S43  1
    x_43_4  D4  1
    x_43_5  COST  597914  S43  1
    x_43_5  D5  1
    x_43_6  COST  586606  S43  1
    x_43_6  D6  1
    x_43_7  COST  985491  S43  1
    x_43_7  D7  1
    x_43_8  COST  211533  S43  1
    x_43_8  D8  1
    x_43_9  COST  476415  S43  1
    x_43_9  D9  1
    x_43_10  COST  690081  S43  1
    x_43_10  D10  1
    x_43_11  COST  763347  S43  1
    x_43_11  D11  1
    x_43_12  COST  618002  S43  1
    x_43_12  D12  1
    x_43_13  COST  860856  S43  1
    x_43_13  D13  1
    x_43_14  COST  434281  S43  1
    x_43_14  D14  1
    x_43_15  COST  368550  S43  1
    x_43_15  D15  1
    x_43_16  COST  280897  S43  1
    x_43_16  D16  1
    x_43_17  COST  10887  S43  1
    x_43_17  D17  1
    x_43_18  COST  20765  S43  1
    x_43_18  D18  1
    x_43_19  COST  708107  S43  1
    x_43_19  D19  1
    x_43_20  COST  739702  S43  1
    x_43_20  D20  1
    x_43_21  COST  946323  S43  1
    x_43_21  D21  1
    x_43_22  COST  612042  S43  1
    x_43_22  D22  1
    x_43_23  COST  506898  S43  1
    x_43_23  D23  1
    x_43_24  COST  335361  S43  1
    x_43_24  D24  1
    x_43_25  COST  11947  S43  1
    x_43_25  D25  1
    x_43_26  COST  187099  S43  1
    x_43_26  D26  1
    x_43_27  COST  235951  S43  1
    x_43_27  D27  1
    x_43_28  COST  602168  S43  1
    x_43_28  D28  1
    x_43_29  COST  166806  S43  1
    x_43_29  D29  1
    x_43_30  COST  40035  S43  1
    x_43_30  D30  1
    x_43_31  COST  373313  S43  1
    x_43_31  D31  1
    x_43_32  COST  854728  S43  1
    x_43_32  D32  1
    x_43_33  COST  976661  S43  1
    x_43_33  D33  1
    x_43_34  COST  343766  S43  1
    x_43_34  D34  1
    x_43_35  COST  456085  S43  1
    x_43_35  D35  1
    x_43_36  COST  172811  S43  1
    x_43_36  D36  1
    x_43_37  COST  446828  S43  1
    x_43_37  D37  1
    x_43_38  COST  928682  S43  1
    x_43_38  D38  1
    x_43_39  COST  366853  S43  1
    x_43_39  D39  1
    x_43_40  COST  572624  S43  1
    x_43_40  D40  1
    x_43_41  COST  105921  S43  1
    x_43_41  D41  1
    x_43_42  COST  731969  S43  1
    x_43_42  D42  1
    x_43_43  COST  597794  S43  1
    x_43_43  D43  1
    x_43_44  COST  728390  S43  1
    x_43_44  D44  1
    x_43_45  COST  761218  S43  1
    x_43_45  D45  1
    x_43_46  COST  843274  S43  1
    x_43_46  D46  1
    x_43_47  COST  393342  S43  1
    x_43_47  D47  1
    x_43_48  COST  550600  S43  1
    x_43_48  D48  1
    x_43_49  COST  812690  S43  1
    x_43_49  D49  1
    x_43_50  COST  50315  S43  1
    x_43_50  D50  1
    x_43_51  COST  237593  S43  1
    x_43_51  D51  1
    x_43_52  COST  732822  S43  1
    x_43_52  D52  1
    x_43_53  COST  520750  S43  1
    x_43_53  D53  1
    x_43_54  COST  324393  S43  1
    x_43_54  D54  1
    x_43_55  COST  666162  S43  1
    x_43_55  D55  1
    x_43_56  COST  656434  S43  1
    x_43_56  D56  1
    x_43_57  COST  296190  S43  1
    x_43_57  D57  1
    x_43_58  COST  529277  S43  1
    x_43_58  D58  1
    x_43_59  COST  124923  S43  1
    x_43_59  D59  1
    x_44_0  COST  748152  S44  1
    x_44_0  D0  1
    x_44_1  COST  675576  S44  1
    x_44_1  D1  1
    x_44_2  COST  657227  S44  1
    x_44_2  D2  1
    x_44_3  COST  248074  S44  1
    x_44_3  D3  1
    x_44_4  COST  457598  S44  1
    x_44_4  D4  1
    x_44_5  COST  604782  S44  1
    x_44_5  D5  1
    x_44_6  COST  294673  S44  1
    x_44_6  D6  1
    x_44_7  COST  593848  S44  1
    x_44_7  D7  1
    x_44_8  COST  199163  S44  1
    x_44_8  D8  1
    x_44_9  COST  576853  S44  1
    x_44_9  D9  1
    x_44_10  COST  144403  S44  1
    x_44_10  D10  1
    x_44_11  COST  114993  S44  1
    x_44_11  D11  1
    x_44_12  COST  587909  S44  1
    x_44_12  D12  1
    x_44_13  COST  956902  S44  1
    x_44_13  D13  1
    x_44_14  COST  41831  S44  1
    x_44_14  D14  1
    x_44_15  COST  271903  S44  1
    x_44_15  D15  1
    x_44_16  COST  650783  S44  1
    x_44_16  D16  1
    x_44_17  COST  125103  S44  1
    x_44_17  D17  1
    x_44_18  COST  467172  S44  1
    x_44_18  D18  1
    x_44_19  COST  177968  S44  1
    x_44_19  D19  1
    x_44_20  COST  116304  S44  1
    x_44_20  D20  1
    x_44_21  COST  28360  S44  1
    x_44_21  D21  1
    x_44_22  COST  588936  S44  1
    x_44_22  D22  1
    x_44_23  COST  968230  S44  1
    x_44_23  D23  1
    x_44_24  COST  610410  S44  1
    x_44_24  D24  1
    x_44_25  COST  1549  S44  1
    x_44_25  D25  1
    x_44_26  COST  969199  S44  1
    x_44_26  D26  1
    x_44_27  COST  750202  S44  1
    x_44_27  D27  1
    x_44_28  COST  442565  S44  1
    x_44_28  D28  1
    x_44_29  COST  848220  S44  1
    x_44_29  D29  1
    x_44_30  COST  410636  S44  1
    x_44_30  D30  1
    x_44_31  COST  524749  S44  1
    x_44_31  D31  1
    x_44_32  COST  692592  S44  1
    x_44_32  D32  1
    x_44_33  COST  137318  S44  1
    x_44_33  D33  1
    x_44_34  COST  5568  S44  1
    x_44_34  D34  1
    x_44_35  COST  126199  S44  1
    x_44_35  D35  1
    x_44_36  COST  465342  S44  1
    x_44_36  D36  1
    x_44_37  COST  656286  S44  1
    x_44_37  D37  1
    x_44_38  COST  903519  S44  1
    x_44_38  D38  1
    x_44_39  COST  317292  S44  1
    x_44_39  D39  1
    x_44_40  COST  852091  S44  1
    x_44_40  D40  1
    x_44_41  COST  189134  S44  1
    x_44_41  D41  1
    x_44_42  COST  381331  S44  1
    x_44_42  D42  1
    x_44_43  COST  438508  S44  1
    x_44_43  D43  1
    x_44_44  COST  671432  S44  1
    x_44_44  D44  1
    x_44_45  COST  725236  S44  1
    x_44_45  D45  1
    x_44_46  COST  488165  S44  1
    x_44_46  D46  1
    x_44_47  COST  390658  S44  1
    x_44_47  D47  1
    x_44_48  COST  55923  S44  1
    x_44_48  D48  1
    x_44_49  COST  754844  S44  1
    x_44_49  D49  1
    x_44_50  COST  887816  S44  1
    x_44_50  D50  1
    x_44_51  COST  152006  S44  1
    x_44_51  D51  1
    x_44_52  COST  711074  S44  1
    x_44_52  D52  1
    x_44_53  COST  672536  S44  1
    x_44_53  D53  1
    x_44_54  COST  174000  S44  1
    x_44_54  D54  1
    x_44_55  COST  343661  S44  1
    x_44_55  D55  1
    x_44_56  COST  999214  S44  1
    x_44_56  D56  1
    x_44_57  COST  64379  S44  1
    x_44_57  D57  1
    x_44_58  COST  492728  S44  1
    x_44_58  D58  1
    x_44_59  COST  443692  S44  1
    x_44_59  D59  1
    x_45_0  COST  744824  S45  1
    x_45_0  D0  1
    x_45_1  COST  256299  S45  1
    x_45_1  D1  1
    x_45_2  COST  445351  S45  1
    x_45_2  D2  1
    x_45_3  COST  334030  S45  1
    x_45_3  D3  1
    x_45_4  COST  385865  S45  1
    x_45_4  D4  1
    x_45_5  COST  985713  S45  1
    x_45_5  D5  1
    x_45_6  COST  750832  S45  1
    x_45_6  D6  1
    x_45_7  COST  796157  S45  1
    x_45_7  D7  1
    x_45_8  COST  277930  S45  1
    x_45_8  D8  1
    x_45_9  COST  303903  S45  1
    x_45_9  D9  1
    x_45_10  COST  211097  S45  1
    x_45_10  D10  1
    x_45_11  COST  14102  S45  1
    x_45_11  D11  1
    x_45_12  COST  480537  S45  1
    x_45_12  D12  1
    x_45_13  COST  607426  S45  1
    x_45_13  D13  1
    x_45_14  COST  536158  S45  1
    x_45_14  D14  1
    x_45_15  COST  899379  S45  1
    x_45_15  D15  1
    x_45_16  COST  592983  S45  1
    x_45_16  D16  1
    x_45_17  COST  711278  S45  1
    x_45_17  D17  1
    x_45_18  COST  787377  S45  1
    x_45_18  D18  1
    x_45_19  COST  536654  S45  1
    x_45_19  D19  1
    x_45_20  COST  490250  S45  1
    x_45_20  D20  1
    x_45_21  COST  128764  S45  1
    x_45_21  D21  1
    x_45_22  COST  704817  S45  1
    x_45_22  D22  1
    x_45_23  COST  159258  S45  1
    x_45_23  D23  1
    x_45_24  COST  332273  S45  1
    x_45_24  D24  1
    x_45_25  COST  341692  S45  1
    x_45_25  D25  1
    x_45_26  COST  623033  S45  1
    x_45_26  D26  1
    x_45_27  COST  759569  S45  1
    x_45_27  D27  1
    x_45_28  COST  650021  S45  1
    x_45_28  D28  1
    x_45_29  COST  341742  S45  1
    x_45_29  D29  1
    x_45_30  COST  975298  S45  1
    x_45_30  D30  1
    x_45_31  COST  670895  S45  1
    x_45_31  D31  1
    x_45_32  COST  47560  S45  1
    x_45_32  D32  1
    x_45_33  COST  106202  S45  1
    x_45_33  D33  1
    x_45_34  COST  595225  S45  1
    x_45_34  D34  1
    x_45_35  COST  470887  S45  1
    x_45_35  D35  1
    x_45_36  COST  814276  S45  1
    x_45_36  D36  1
    x_45_37  COST  606795  S45  1
    x_45_37  D37  1
    x_45_38  COST  515124  S45  1
    x_45_38  D38  1
    x_45_39  COST  135423  S45  1
    x_45_39  D39  1
    x_45_40  COST  659642  S45  1
    x_45_40  D40  1
    x_45_41  COST  375553  S45  1
    x_45_41  D41  1
    x_45_42  COST  603085  S45  1
    x_45_42  D42  1
    x_45_43  COST  265220  S45  1
    x_45_43  D43  1
    x_45_44  COST  401298  S45  1
    x_45_44  D44  1
    x_45_45  COST  757847  S45  1
    x_45_45  D45  1
    x_45_46  COST  851468  S45  1
    x_45_46  D46  1
    x_45_47  COST  645830  S45  1
    x_45_47  D47  1
    x_45_48  COST  176074  S45  1
    x_45_48  D48  1
    x_45_49  COST  380418  S45  1
    x_45_49  D49  1
    x_45_50  COST  914674  S45  1
    x_45_50  D50  1
    x_45_51  COST  345934  S45  1
    x_45_51  D51  1
    x_45_52  COST  278104  S45  1
    x_45_52  D52  1
    x_45_53  COST  752665  S45  1
    x_45_53  D53  1
    x_45_54  COST  28702  S45  1
    x_45_54  D54  1
    x_45_55  COST  884246  S45  1
    x_45_55  D55  1
    x_45_56  COST  185239  S45  1
    x_45_56  D56  1
    x_45_57  COST  219040  S45  1
    x_45_57  D57  1
    x_45_58  COST  497894  S45  1
    x_45_58  D58  1
    x_45_59  COST  4006  S45  1
    x_45_59  D59  1
    x_46_0  COST  167215  S46  1
    x_46_0  D0  1
    x_46_1  COST  628810  S46  1
    x_46_1  D1  1
    x_46_2  COST  237517  S46  1
    x_46_2  D2  1
    x_46_3  COST  918601  S46  1
    x_46_3  D3  1
    x_46_4  COST  164654  S46  1
    x_46_4  D4  1
    x_46_5  COST  257419  S46  1
    x_46_5  D5  1
    x_46_6  COST  947507  S46  1
    x_46_6  D6  1
    x_46_7  COST  26695  S46  1
    x_46_7  D7  1
    x_46_8  COST  910273  S46  1
    x_46_8  D8  1
    x_46_9  COST  979975  S46  1
    x_46_9  D9  1
    x_46_10  COST  859946  S46  1
    x_46_10  D10  1
    x_46_11  COST  715535  S46  1
    x_46_11  D11  1
    x_46_12  COST  480612  S46  1
    x_46_12  D12  1
    x_46_13  COST  638756  S46  1
    x_46_13  D13  1
    x_46_14  COST  762720  S46  1
    x_46_14  D14  1
    x_46_15  COST  651888  S46  1
    x_46_15  D15  1
    x_46_16  COST  110562  S46  1
    x_46_16  D16  1
    x_46_17  COST  896007  S46  1
    x_46_17  D17  1
    x_46_18  COST  848680  S46  1
    x_46_18  D18  1
    x_46_19  COST  752480  S46  1
    x_46_19  D19  1
    x_46_20  COST  744720  S46  1
    x_46_20  D20  1
    x_46_21  COST  628085  S46  1
    x_46_21  D21  1
    x_46_22  COST  461420  S46  1
    x_46_22  D22  1
    x_46_23  COST  626475  S46  1
    x_46_23  D23  1
    x_46_24  COST  974505  S46  1
    x_46_24  D24  1
    x_46_25  COST  605211  S46  1
    x_46_25  D25  1
    x_46_26  COST  852807  S46  1
    x_46_26  D26  1
    x_46_27  COST  811682  S46  1
    x_46_27  D27  1
    x_46_28  COST  527389  S46  1
    x_46_28  D28  1
    x_46_29  COST  139921  S46  1
    x_46_29  D29  1
    x_46_30  COST  294987  S46  1
    x_46_30  D30  1
    x_46_31  COST  52384  S46  1
    x_46_31  D31  1
    x_46_32  COST  723004  S46  1
    x_46_32  D32  1
    x_46_33  COST  248201  S46  1
    x_46_33  D33  1
    x_46_34  COST  31753  S46  1
    x_46_34  D34  1
    x_46_35  COST  615549  S46  1
    x_46_35  D35  1
    x_46_36  COST  978944  S46  1
    x_46_36  D36  1
    x_46_37  COST  234528  S46  1
    x_46_37  D37  1
    x_46_38  COST  96620  S46  1
    x_46_38  D38  1
    x_46_39  COST  34312  S46  1
    x_46_39  D39  1
    x_46_40  COST  440096  S46  1
    x_46_40  D40  1
    x_46_41  COST  659464  S46  1
    x_46_41  D41  1
    x_46_42  COST  269947  S46  1
    x_46_42  D42  1
    x_46_43  COST  72148  S46  1
    x_46_43  D43  1
    x_46_44  COST  206620  S46  1
    x_46_44  D44  1
    x_46_45  COST  463610  S46  1
    x_46_45  D45  1
    x_46_46  COST  337660  S46  1
    x_46_46  D46  1
    x_46_47  COST  458385  S46  1
    x_46_47  D47  1
    x_46_48  COST  36915  S46  1
    x_46_48  D48  1
    x_46_49  COST  317297  S46  1
    x_46_49  D49  1
    x_46_50  COST  903855  S46  1
    x_46_50  D50  1
    x_46_51  COST  472511  S46  1
    x_46_51  D51  1
    x_46_52  COST  207389  S46  1
    x_46_52  D52  1
    x_46_53  COST  144154  S46  1
    x_46_53  D53  1
    x_46_54  COST  493245  S46  1
    x_46_54  D54  1
    x_46_55  COST  92034  S46  1
    x_46_55  D55  1
    x_46_56  COST  611791  S46  1
    x_46_56  D56  1
    x_46_57  COST  908428  S46  1
    x_46_57  D57  1
    x_46_58  COST  918290  S46  1
    x_46_58  D58  1
    x_46_59  COST  675239  S46  1
    x_46_59  D59  1
    x_47_0  COST  410449  S47  1
    x_47_0  D0  1
    x_47_1  COST  395788  S47  1
    x_47_1  D1  1
    x_47_2  COST  200441  S47  1
    x_47_2  D2  1
    x_47_3  COST  396624  S47  1
    x_47_3  D3  1
    x_47_4  COST  317036  S47  1
    x_47_4  D4  1
    x_47_5  COST  847690  S47  1
    x_47_5  D5  1
    x_47_6  COST  455839  S47  1
    x_47_6  D6  1
    x_47_7  COST  607315  S47  1
    x_47_7  D7  1
    x_47_8  COST  492080  S47  1
    x_47_8  D8  1
    x_47_9  COST  715948  S47  1
    x_47_9  D9  1
    x_47_10  COST  136608  S47  1
    x_47_10  D10  1
    x_47_11  COST  592905  S47  1
    x_47_11  D11  1
    x_47_12  COST  338876  S47  1
    x_47_12  D12  1
    x_47_13  COST  60475  S47  1
    x_47_13  D13  1
    x_47_14  COST  494430  S47  1
    x_47_14  D14  1
    x_47_15  COST  899925  S47  1
    x_47_15  D15  1
    x_47_16  COST  577770  S47  1
    x_47_16  D16  1
    x_47_17  COST  146353  S47  1
    x_47_17  D17  1
    x_47_18  COST  552380  S47  1
    x_47_18  D18  1
    x_47_19  COST  636601  S47  1
    x_47_19  D19  1
    x_47_20  COST  436110  S47  1
    x_47_20  D20  1
    x_47_21  COST  345086  S47  1
    x_47_21  D21  1
    x_47_22  COST  684727  S47  1
    x_47_22  D22  1
    x_47_23  COST  93081  S47  1
    x_47_23  D23  1
    x_47_24  COST  387897  S47  1
    x_47_24  D24  1
    x_47_25  COST  470559  S47  1
    x_47_25  D25  1
    x_47_26  COST  896623  S47  1
    x_47_26  D26  1
    x_47_27  COST  258311  S47  1
    x_47_27  D27  1
    x_47_28  COST  191296  S47  1
    x_47_28  D28  1
    x_47_29  COST  223430  S47  1
    x_47_29  D29  1
    x_47_30  COST  641689  S47  1
    x_47_30  D30  1
    x_47_31  COST  842451  S47  1
    x_47_31  D31  1
    x_47_32  COST  170747  S47  1
    x_47_32  D32  1
    x_47_33  COST  930945  S47  1
    x_47_33  D33  1
    x_47_34  COST  111337  S47  1
    x_47_34  D34  1
    x_47_35  COST  598853  S47  1
    x_47_35  D35  1
    x_47_36  COST  370368  S47  1
    x_47_36  D36  1
    x_47_37  COST  330422  S47  1
    x_47_37  D37  1
    x_47_38  COST  927188  S47  1
    x_47_38  D38  1
    x_47_39  COST  351140  S47  1
    x_47_39  D39  1
    x_47_40  COST  579423  S47  1
    x_47_40  D40  1
    x_47_41  COST  517111  S47  1
    x_47_41  D41  1
    x_47_42  COST  584063  S47  1
    x_47_42  D42  1
    x_47_43  COST  582185  S47  1
    x_47_43  D43  1
    x_47_44  COST  994033  S47  1
    x_47_44  D44  1
    x_47_45  COST  943442  S47  1
    x_47_45  D45  1
    x_47_46  COST  146013  S47  1
    x_47_46  D46  1
    x_47_47  COST  63955  S47  1
    x_47_47  D47  1
    x_47_48  COST  773793  S47  1
    x_47_48  D48  1
    x_47_49  COST  809101  S47  1
    x_47_49  D49  1
    x_47_50  COST  937558  S47  1
    x_47_50  D50  1
    x_47_51  COST  315186  S47  1
    x_47_51  D51  1
    x_47_52  COST  823979  S47  1
    x_47_52  D52  1
    x_47_53  COST  149603  S47  1
    x_47_53  D53  1
    x_47_54  COST  770640  S47  1
    x_47_54  D54  1
    x_47_55  COST  122101  S47  1
    x_47_55  D55  1
    x_47_56  COST  515002  S47  1
    x_47_56  D56  1
    x_47_57  COST  211742  S47  1
    x_47_57  D57  1
    x_47_58  COST  723946  S47  1
    x_47_58  D58  1
    x_47_59  COST  758336  S47  1
    x_47_59  D59  1
    x_48_0  COST  966663  S48  1
    x_48_0  D0  1
    x_48_1  COST  659241  S48  1
    x_48_1  D1  1
    x_48_2  COST  700451  S48  1
    x_48_2  D2  1
    x_48_3  COST  671720  S48  1
    x_48_3  D3  1
    x_48_4  COST  106287  S48  1
    x_48_4  D4  1
    x_48_5  COST  228734  S48  1
    x_48_5  D5  1
    x_48_6  COST  841077  S48  1
    x_48_6  D6  1
    x_48_7  COST  982578  S48  1
    x_48_7  D7  1
    x_48_8  COST  645214  S48  1
    x_48_8  D8  1
    x_48_9  COST  691609  S48  1
    x_48_9  D9  1
    x_48_10  COST  773660  S48  1
    x_48_10  D10  1
    x_48_11  COST  843609  S48  1
    x_48_11  D11  1
    x_48_12  COST  17223  S48  1
    x_48_12  D12  1
    x_48_13  COST  910860  S48  1
    x_48_13  D13  1
    x_48_14  COST  394359  S48  1
    x_48_14  D14  1
    x_48_15  COST  232263  S48  1
    x_48_15  D15  1
    x_48_16  COST  148861  S48  1
    x_48_16  D16  1
    x_48_17  COST  202493  S48  1
    x_48_17  D17  1
    x_48_18  COST  804084  S48  1
    x_48_18  D18  1
    x_48_19  COST  50306  S48  1
    x_48_19  D19  1
    x_48_20  COST  888860  S48  1
    x_48_20  D20  1
    x_48_21  COST  536106  S48  1
    x_48_21  D21  1
    x_48_22  COST  669344  S48  1
    x_48_22  D22  1
    x_48_23  COST  311481  S48  1
    x_48_23  D23  1
    x_48_24  COST  479653  S48  1
    x_48_24  D24  1
    x_48_25  COST  762546  S48  1
    x_48_25  D25  1
    x_48_26  COST  93956  S48  1
    x_48_26  D26  1
    x_48_27  COST  452210  S48  1
    x_48_27  D27  1
    x_48_28  COST  583650  S48  1
    x_48_28  D28  1
    x_48_29  COST  132879  S48  1
    x_48_29  D29  1
    x_48_30  COST  387948  S48  1
    x_48_30  D30  1
    x_48_31  COST  224250  S48  1
    x_48_31  D31  1
    x_48_32  COST  656215  S48  1
    x_48_32  D32  1
    x_48_33  COST  312739  S48  1
    x_48_33  D33  1
    x_48_34  COST  218622  S48  1
    x_48_34  D34  1
    x_48_35  COST  378485  S48  1
    x_48_35  D35  1
    x_48_36  COST  727807  S48  1
    x_48_36  D36  1
    x_48_37  COST  725833  S48  1
    x_48_37  D37  1
    x_48_38  COST  328178  S48  1
    x_48_38  D38  1
    x_48_39  COST  972507  S48  1
    x_48_39  D39  1
    x_48_40  COST  390620  S48  1
    x_48_40  D40  1
    x_48_41  COST  275294  S48  1
    x_48_41  D41  1
    x_48_42  COST  338257  S48  1
    x_48_42  D42  1
    x_48_43  COST  487754  S48  1
    x_48_43  D43  1
    x_48_44  COST  260023  S48  1
    x_48_44  D44  1
    x_48_45  COST  314404  S48  1
    x_48_45  D45  1
    x_48_46  COST  134064  S48  1
    x_48_46  D46  1
    x_48_47  COST  299488  S48  1
    x_48_47  D47  1
    x_48_48  COST  292426  S48  1
    x_48_48  D48  1
    x_48_49  COST  299349  S48  1
    x_48_49  D49  1
    x_48_50  COST  51244  S48  1
    x_48_50  D50  1
    x_48_51  COST  218800  S48  1
    x_48_51  D51  1
    x_48_52  COST  881381  S48  1
    x_48_52  D52  1
    x_48_53  COST  731057  S48  1
    x_48_53  D53  1
    x_48_54  COST  897097  S48  1
    x_48_54  D54  1
    x_48_55  COST  250792  S48  1
    x_48_55  D55  1
    x_48_56  COST  750641  S48  1
    x_48_56  D56  1
    x_48_57  COST  441631  S48  1
    x_48_57  D57  1
    x_48_58  COST  95200  S48  1
    x_48_58  D58  1
    x_48_59  COST  154298  S48  1
    x_48_59  D59  1
    x_49_0  COST  841392  S49  1
    x_49_0  D0  1
    x_49_1  COST  315322  S49  1
    x_49_1  D1  1
    x_49_2  COST  424902  S49  1
    x_49_2  D2  1
    x_49_3  COST  706632  S49  1
    x_49_3  D3  1
    x_49_4  COST  421842  S49  1
    x_49_4  D4  1
    x_49_5  COST  521121  S49  1
    x_49_5  D5  1
    x_49_6  COST  366091  S49  1
    x_49_6  D6  1
    x_49_7  COST  936071  S49  1
    x_49_7  D7  1
    x_49_8  COST  64468  S49  1
    x_49_8  D8  1
    x_49_9  COST  986350  S49  1
    x_49_9  D9  1
    x_49_10  COST  328275  S49  1
    x_49_10  D10  1
    x_49_11  COST  161097  S49  1
    x_49_11  D11  1
    x_49_12  COST  673757  S49  1
    x_49_12  D12  1
    x_49_13  COST  766517  S49  1
    x_49_13  D13  1
    x_49_14  COST  843073  S49  1
    x_49_14  D14  1
    x_49_15  COST  685991  S49  1
    x_49_15  D15  1
    x_49_16  COST  888542  S49  1
    x_49_16  D16  1
    x_49_17  COST  789692  S49  1
    x_49_17  D17  1
    x_49_18  COST  550083  S49  1
    x_49_18  D18  1
    x_49_19  COST  355026  S49  1
    x_49_19  D19  1
    x_49_20  COST  18430  S49  1
    x_49_20  D20  1
    x_49_21  COST  326335  S49  1
    x_49_21  D21  1
    x_49_22  COST  772841  S49  1
    x_49_22  D22  1
    x_49_23  COST  616527  S49  1
    x_49_23  D23  1
    x_49_24  COST  771555  S49  1
    x_49_24  D24  1
    x_49_25  COST  335645  S49  1
    x_49_25  D25  1
    x_49_26  COST  814211  S49  1
    x_49_26  D26  1
    x_49_27  COST  264482  S49  1
    x_49_27  D27  1
    x_49_28  COST  268668  S49  1
    x_49_28  D28  1
    x_49_29  COST  375150  S49  1
    x_49_29  D29  1
    x_49_30  COST  13598  S49  1
    x_49_30  D30  1
    x_49_31  COST  119861  S49  1
    x_49_31  D31  1
    x_49_32  COST  837434  S49  1
    x_49_32  D32  1
    x_49_33  COST  73027  S49  1
    x_49_33  D33  1
    x_49_34  COST  305624  S49  1
    x_49_34  D34  1
    x_49_35  COST  383384  S49  1
    x_49_35  D35  1
    x_49_36  COST  712412  S49  1
    x_49_36  D36  1
    x_49_37  COST  949299  S49  1
    x_49_37  D37  1
    x_49_38  COST  203693  S49  1
    x_49_38  D38  1
    x_49_39  COST  683025  S49  1
    x_49_39  D39  1
    x_49_40  COST  288821  S49  1
    x_49_40  D40  1
    x_49_41  COST  391409  S49  1
    x_49_41  D41  1
    x_49_42  COST  719021  S49  1
    x_49_42  D42  1
    x_49_43  COST  36896  S49  1
    x_49_43  D43  1
    x_49_44  COST  624341  S49  1
    x_49_44  D44  1
    x_49_45  COST  721266  S49  1
    x_49_45  D45  1
    x_49_46  COST  159789  S49  1
    x_49_46  D46  1
    x_49_47  COST  905968  S49  1
    x_49_47  D47  1
    x_49_48  COST  185685  S49  1
    x_49_48  D48  1
    x_49_49  COST  644979  S49  1
    x_49_49  D49  1
    x_49_50  COST  150793  S49  1
    x_49_50  D50  1
    x_49_51  COST  2340  S49  1
    x_49_51  D51  1
    x_49_52  COST  382384  S49  1
    x_49_52  D52  1
    x_49_53  COST  128967  S49  1
    x_49_53  D53  1
    x_49_54  COST  236898  S49  1
    x_49_54  D54  1
    x_49_55  COST  611685  S49  1
    x_49_55  D55  1
    x_49_56  COST  984487  S49  1
    x_49_56  D56  1
    x_49_57  COST  431384  S49  1
    x_49_57  D57  1
    x_49_58  COST  620478  S49  1
    x_49_58  D58  1
    x_49_59  COST  954454  S49  1
    x_49_59  D59  1
    x_50_0  COST  513478  S50  1
    x_50_0  D0  1
    x_50_1  COST  916047  S50  1
    x_50_1  D1  1
    x_50_2  COST  502165  S50  1
    x_50_2  D2  1
    x_50_3  COST  364645  S50  1
    x_50_3  D3  1
    x_50_4  COST  798918  S50  1
    x_50_4  D4  1
    x_50_5  COST  227686  S50  1
    x_50_5  D5  1
    x_50_6  COST  94342  S50  1
    x_50_6  D6  1
    x_50_7  COST  414783  S50  1
    x_50_7  D7  1
    x_50_8  COST  637056  S50  1
    x_50_8  D8  1
    x_50_9  COST  880576  S50  1
    x_50_9  D9  1
    x_50_10  COST  154818  S50  1
    x_50_10  D10  1
    x_50_11  COST  136964  S50  1
    x_50_11  D11  1
    x_50_12  COST  768409  S50  1
    x_50_12  D12  1
    x_50_13  COST  530462  S50  1
    x_50_13  D13  1
    x_50_14  COST  415253  S50  1
    x_50_14  D14  1
    x_50_15  COST  287648  S50  1
    x_50_15  D15  1
    x_50_16  COST  359624  S50  1
    x_50_16  D16  1
    x_50_17  COST  658341  S50  1
    x_50_17  D17  1
    x_50_18  COST  572125  S50  1
    x_50_18  D18  1
    x_50_19  COST  561219  S50  1
    x_50_19  D19  1
    x_50_20  COST  400823  S50  1
    x_50_20  D20  1
    x_50_21  COST  840686  S50  1
    x_50_21  D21  1
    x_50_22  COST  819555  S50  1
    x_50_22  D22  1
    x_50_23  COST  502843  S50  1
    x_50_23  D23  1
    x_50_24  COST  296617  S50  1
    x_50_24  D24  1
    x_50_25  COST  903519  S50  1
    x_50_25  D25  1
    x_50_26  COST  839608  S50  1
    x_50_26  D26  1
    x_50_27  COST  452942  S50  1
    x_50_27  D27  1
    x_50_28  COST  6746  S50  1
    x_50_28  D28  1
    x_50_29  COST  78993  S50  1
    x_50_29  D29  1
    x_50_30  COST  168566  S50  1
    x_50_30  D30  1
    x_50_31  COST  379906  S50  1
    x_50_31  D31  1
    x_50_32  COST  257552  S50  1
    x_50_32  D32  1
    x_50_33  COST  596057  S50  1
    x_50_33  D33  1
    x_50_34  COST  691111  S50  1
    x_50_34  D34  1
    x_50_35  COST  135990  S50  1
    x_50_35  D35  1
    x_50_36  COST  455519  S50  1
    x_50_36  D36  1
    x_50_37  COST  962497  S50  1
    x_50_37  D37  1
    x_50_38  COST  149881  S50  1
    x_50_38  D38  1
    x_50_39  COST  953536  S50  1
    x_50_39  D39  1
    x_50_40  COST  904315  S50  1
    x_50_40  D40  1
    x_50_41  COST  658114  S50  1
    x_50_41  D41  1
    x_50_42  COST  204465  S50  1
    x_50_42  D42  1
    x_50_43  COST  309622  S50  1
    x_50_43  D43  1
    x_50_44  COST  282123  S50  1
    x_50_44  D44  1
    x_50_45  COST  845979  S50  1
    x_50_45  D45  1
    x_50_46  COST  189625  S50  1
    x_50_46  D46  1
    x_50_47  COST  287554  S50  1
    x_50_47  D47  1
    x_50_48  COST  126543  S50  1
    x_50_48  D48  1
    x_50_49  COST  231747  S50  1
    x_50_49  D49  1
    x_50_50  COST  410404  S50  1
    x_50_50  D50  1
    x_50_51  COST  692964  S50  1
    x_50_51  D51  1
    x_50_52  COST  992529  S50  1
    x_50_52  D52  1
    x_50_53  COST  242011  S50  1
    x_50_53  D53  1
    x_50_54  COST  191549  S50  1
    x_50_54  D54  1
    x_50_55  COST  513402  S50  1
    x_50_55  D55  1
    x_50_56  COST  373916  S50  1
    x_50_56  D56  1
    x_50_57  COST  35458  S50  1
    x_50_57  D57  1
    x_50_58  COST  411625  S50  1
    x_50_58  D58  1
    x_50_59  COST  771168  S50  1
    x_50_59  D59  1
    x_51_0  COST  883002  S51  1
    x_51_0  D0  1
    x_51_1  COST  745208  S51  1
    x_51_1  D1  1
    x_51_2  COST  664623  S51  1
    x_51_2  D2  1
    x_51_3  COST  734974  S51  1
    x_51_3  D3  1
    x_51_4  COST  503559  S51  1
    x_51_4  D4  1
    x_51_5  COST  409703  S51  1
    x_51_5  D5  1
    x_51_6  COST  547305  S51  1
    x_51_6  D6  1
    x_51_7  COST  432270  S51  1
    x_51_7  D7  1
    x_51_8  COST  774655  S51  1
    x_51_8  D8  1
    x_51_9  COST  435061  S51  1
    x_51_9  D9  1
    x_51_10  COST  296302  S51  1
    x_51_10  D10  1
    x_51_11  COST  703901  S51  1
    x_51_11  D11  1
    x_51_12  COST  294428  S51  1
    x_51_12  D12  1
    x_51_13  COST  770264  S51  1
    x_51_13  D13  1
    x_51_14  COST  284776  S51  1
    x_51_14  D14  1
    x_51_15  COST  543443  S51  1
    x_51_15  D15  1
    x_51_16  COST  422089  S51  1
    x_51_16  D16  1
    x_51_17  COST  964287  S51  1
    x_51_17  D17  1
    x_51_18  COST  547010  S51  1
    x_51_18  D18  1
    x_51_19  COST  656637  S51  1
    x_51_19  D19  1
    x_51_20  COST  469207  S51  1
    x_51_20  D20  1
    x_51_21  COST  127504  S51  1
    x_51_21  D21  1
    x_51_22  COST  337631  S51  1
    x_51_22  D22  1
    x_51_23  COST  470734  S51  1
    x_51_23  D23  1
    x_51_24  COST  955598  S51  1
    x_51_24  D24  1
    x_51_25  COST  807276  S51  1
    x_51_25  D25  1
    x_51_26  COST  726023  S51  1
    x_51_26  D26  1
    x_51_27  COST  216856  S51  1
    x_51_27  D27  1
    x_51_28  COST  545409  S51  1
    x_51_28  D28  1
    x_51_29  COST  327182  S51  1
    x_51_29  D29  1
    x_51_30  COST  321564  S51  1
    x_51_30  D30  1
    x_51_31  COST  663159  S51  1
    x_51_31  D31  1
    x_51_32  COST  195679  S51  1
    x_51_32  D32  1
    x_51_33  COST  582020  S51  1
    x_51_33  D33  1
    x_51_34  COST  725858  S51  1
    x_51_34  D34  1
    x_51_35  COST  629608  S51  1
    x_51_35  D35  1
    x_51_36  COST  817677  S51  1
    x_51_36  D36  1
    x_51_37  COST  355132  S51  1
    x_51_37  D37  1
    x_51_38  COST  584532  S51  1
    x_51_38  D38  1
    x_51_39  COST  363280  S51  1
    x_51_39  D39  1
    x_51_40  COST  377401  S51  1
    x_51_40  D40  1
    x_51_41  COST  282553  S51  1
    x_51_41  D41  1
    x_51_42  COST  216096  S51  1
    x_51_42  D42  1
    x_51_43  COST  154057  S51  1
    x_51_43  D43  1
    x_51_44  COST  585603  S51  1
    x_51_44  D44  1
    x_51_45  COST  897852  S51  1
    x_51_45  D45  1
    x_51_46  COST  556931  S51  1
    x_51_46  D46  1
    x_51_47  COST  193050  S51  1
    x_51_47  D47  1
    x_51_48  COST  638634  S51  1
    x_51_48  D48  1
    x_51_49  COST  4720  S51  1
    x_51_49  D49  1
    x_51_50  COST  451786  S51  1
    x_51_50  D50  1
    x_51_51  COST  461152  S51  1
    x_51_51  D51  1
    x_51_52  COST  437648  S51  1
    x_51_52  D52  1
    x_51_53  COST  199877  S51  1
    x_51_53  D53  1
    x_51_54  COST  648161  S51  1
    x_51_54  D54  1
    x_51_55  COST  534687  S51  1
    x_51_55  D55  1
    x_51_56  COST  306233  S51  1
    x_51_56  D56  1
    x_51_57  COST  741158  S51  1
    x_51_57  D57  1
    x_51_58  COST  549159  S51  1
    x_51_58  D58  1
    x_51_59  COST  812340  S51  1
    x_51_59  D59  1
    x_52_0  COST  729973  S52  1
    x_52_0  D0  1
    x_52_1  COST  266157  S52  1
    x_52_1  D1  1
    x_52_2  COST  598931  S52  1
    x_52_2  D2  1
    x_52_3  COST  571280  S52  1
    x_52_3  D3  1
    x_52_4  COST  721665  S52  1
    x_52_4  D4  1
    x_52_5  COST  317888  S52  1
    x_52_5  D5  1
    x_52_6  COST  196639  S52  1
    x_52_6  D6  1
    x_52_7  COST  703261  S52  1
    x_52_7  D7  1
    x_52_8  COST  764061  S52  1
    x_52_8  D8  1
    x_52_9  COST  940509  S52  1
    x_52_9  D9  1
    x_52_10  COST  846996  S52  1
    x_52_10  D10  1
    x_52_11  COST  379367  S52  1
    x_52_11  D11  1
    x_52_12  COST  182510  S52  1
    x_52_12  D12  1
    x_52_13  COST  177947  S52  1
    x_52_13  D13  1
    x_52_14  COST  703425  S52  1
    x_52_14  D14  1
    x_52_15  COST  477184  S52  1
    x_52_15  D15  1
    x_52_16  COST  798583  S52  1
    x_52_16  D16  1
    x_52_17  COST  383562  S52  1
    x_52_17  D17  1
    x_52_18  COST  810598  S52  1
    x_52_18  D18  1
    x_52_19  COST  409108  S52  1
    x_52_19  D19  1
    x_52_20  COST  943190  S52  1
    x_52_20  D20  1
    x_52_21  COST  786329  S52  1
    x_52_21  D21  1
    x_52_22  COST  789490  S52  1
    x_52_22  D22  1
    x_52_23  COST  674431  S52  1
    x_52_23  D23  1
    x_52_24  COST  672911  S52  1
    x_52_24  D24  1
    x_52_25  COST  704029  S52  1
    x_52_25  D25  1
    x_52_26  COST  654673  S52  1
    x_52_26  D26  1
    x_52_27  COST  546695  S52  1
    x_52_27  D27  1
    x_52_28  COST  118855  S52  1
    x_52_28  D28  1
    x_52_29  COST  355219  S52  1
    x_52_29  D29  1
    x_52_30  COST  266944  S52  1
    x_52_30  D30  1
    x_52_31  COST  701033  S52  1
    x_52_31  D31  1
    x_52_32  COST  920483  S52  1
    x_52_32  D32  1
    x_52_33  COST  339221  S52  1
    x_52_33  D33  1
    x_52_34  COST  553605  S52  1
    x_52_34  D34  1
    x_52_35  COST  27583  S52  1
    x_52_35  D35  1
    x_52_36  COST  760595  S52  1
    x_52_36  D36  1
    x_52_37  COST  483386  S52  1
    x_52_37  D37  1
    x_52_38  COST  108674  S52  1
    x_52_38  D38  1
    x_52_39  COST  309040  S52  1
    x_52_39  D39  1
    x_52_40  COST  914205  S52  1
    x_52_40  D40  1
    x_52_41  COST  403588  S52  1
    x_52_41  D41  1
    x_52_42  COST  598681  S52  1
    x_52_42  D42  1
    x_52_43  COST  264442  S52  1
    x_52_43  D43  1
    x_52_44  COST  166334  S52  1
    x_52_44  D44  1
    x_52_45  COST  160026  S52  1
    x_52_45  D45  1
    x_52_46  COST  802629  S52  1
    x_52_46  D46  1
    x_52_47  COST  212892  S52  1
    x_52_47  D47  1
    x_52_48  COST  115313  S52  1
    x_52_48  D48  1
    x_52_49  COST  614050  S52  1
    x_52_49  D49  1
    x_52_50  COST  480530  S52  1
    x_52_50  D50  1
    x_52_51  COST  666740  S52  1
    x_52_51  D51  1
    x_52_52  COST  537736  S52  1
    x_52_52  D52  1
    x_52_53  COST  172354  S52  1
    x_52_53  D53  1
    x_52_54  COST  728172  S52  1
    x_52_54  D54  1
    x_52_55  COST  786135  S52  1
    x_52_55  D55  1
    x_52_56  COST  197481  S52  1
    x_52_56  D56  1
    x_52_57  COST  608823  S52  1
    x_52_57  D57  1
    x_52_58  COST  168347  S52  1
    x_52_58  D58  1
    x_52_59  COST  322122  S52  1
    x_52_59  D59  1
    x_53_0  COST  207010  S53  1
    x_53_0  D0  1
    x_53_1  COST  15219  S53  1
    x_53_1  D1  1
    x_53_2  COST  953046  S53  1
    x_53_2  D2  1
    x_53_3  COST  35552  S53  1
    x_53_3  D3  1
    x_53_4  COST  37807  S53  1
    x_53_4  D4  1
    x_53_5  COST  878124  S53  1
    x_53_5  D5  1
    x_53_6  COST  63419  S53  1
    x_53_6  D6  1
    x_53_7  COST  187868  S53  1
    x_53_7  D7  1
    x_53_8  COST  726949  S53  1
    x_53_8  D8  1
    x_53_9  COST  561322  S53  1
    x_53_9  D9  1
    x_53_10  COST  828588  S53  1
    x_53_10  D10  1
    x_53_11  COST  139965  S53  1
    x_53_11  D11  1
    x_53_12  COST  353066  S53  1
    x_53_12  D12  1
    x_53_13  COST  746886  S53  1
    x_53_13  D13  1
    x_53_14  COST  565918  S53  1
    x_53_14  D14  1
    x_53_15  COST  964914  S53  1
    x_53_15  D15  1
    x_53_16  COST  494685  S53  1
    x_53_16  D16  1
    x_53_17  COST  407356  S53  1
    x_53_17  D17  1
    x_53_18  COST  886381  S53  1
    x_53_18  D18  1
    x_53_19  COST  929222  S53  1
    x_53_19  D19  1
    x_53_20  COST  991082  S53  1
    x_53_20  D20  1
    x_53_21  COST  666758  S53  1
    x_53_21  D21  1
    x_53_22  COST  985561  S53  1
    x_53_22  D22  1
    x_53_23  COST  976163  S53  1
    x_53_23  D23  1
    x_53_24  COST  995389  S53  1
    x_53_24  D24  1
    x_53_25  COST  948263  S53  1
    x_53_25  D25  1
    x_53_26  COST  139110  S53  1
    x_53_26  D26  1
    x_53_27  COST  434429  S53  1
    x_53_27  D27  1
    x_53_28  COST  471013  S53  1
    x_53_28  D28  1
    x_53_29  COST  720089  S53  1
    x_53_29  D29  1
    x_53_30  COST  353790  S53  1
    x_53_30  D30  1
    x_53_31  COST  684814  S53  1
    x_53_31  D31  1
    x_53_32  COST  140675  S53  1
    x_53_32  D32  1
    x_53_33  COST  513018  S53  1
    x_53_33  D33  1
    x_53_34  COST  925799  S53  1
    x_53_34  D34  1
    x_53_35  COST  350141  S53  1
    x_53_35  D35  1
    x_53_36  COST  398576  S53  1
    x_53_36  D36  1
    x_53_37  COST  117773  S53  1
    x_53_37  D37  1
    x_53_38  COST  563014  S53  1
    x_53_38  D38  1
    x_53_39  COST  107019  S53  1
    x_53_39  D39  1
    x_53_40  COST  16099  S53  1
    x_53_40  D40  1
    x_53_41  COST  417855  S53  1
    x_53_41  D41  1
    x_53_42  COST  411892  S53  1
    x_53_42  D42  1
    x_53_43  COST  861187  S53  1
    x_53_43  D43  1
    x_53_44  COST  111562  S53  1
    x_53_44  D44  1
    x_53_45  COST  220865  S53  1
    x_53_45  D45  1
    x_53_46  COST  91358  S53  1
    x_53_46  D46  1
    x_53_47  COST  998390  S53  1
    x_53_47  D47  1
    x_53_48  COST  701628  S53  1
    x_53_48  D48  1
    x_53_49  COST  378557  S53  1
    x_53_49  D49  1
    x_53_50  COST  425170  S53  1
    x_53_50  D50  1
    x_53_51  COST  972052  S53  1
    x_53_51  D51  1
    x_53_52  COST  770473  S53  1
    x_53_52  D52  1
    x_53_53  COST  866104  S53  1
    x_53_53  D53  1
    x_53_54  COST  662752  S53  1
    x_53_54  D54  1
    x_53_55  COST  13584  S53  1
    x_53_55  D55  1
    x_53_56  COST  453414  S53  1
    x_53_56  D56  1
    x_53_57  COST  118080  S53  1
    x_53_57  D57  1
    x_53_58  COST  901085  S53  1
    x_53_58  D58  1
    x_53_59  COST  985482  S53  1
    x_53_59  D59  1
    x_54_0  COST  872175  S54  1
    x_54_0  D0  1
    x_54_1  COST  306016  S54  1
    x_54_1  D1  1
    x_54_2  COST  108745  S54  1
    x_54_2  D2  1
    x_54_3  COST  961940  S54  1
    x_54_3  D3  1
    x_54_4  COST  885910  S54  1
    x_54_4  D4  1
    x_54_5  COST  251135  S54  1
    x_54_5  D5  1
    x_54_6  COST  795085  S54  1
    x_54_6  D6  1
    x_54_7  COST  277231  S54  1
    x_54_7  D7  1
    x_54_8  COST  521027  S54  1
    x_54_8  D8  1
    x_54_9  COST  852706  S54  1
    x_54_9  D9  1
    x_54_10  COST  722202  S54  1
    x_54_10  D10  1
    x_54_11  COST  594510  S54  1
    x_54_11  D11  1
    x_54_12  COST  887417  S54  1
    x_54_12  D12  1
    x_54_13  COST  414790  S54  1
    x_54_13  D13  1
    x_54_14  COST  280276  S54  1
    x_54_14  D14  1
    x_54_15  COST  176896  S54  1
    x_54_15  D15  1
    x_54_16  COST  58610  S54  1
    x_54_16  D16  1
    x_54_17  COST  304498  S54  1
    x_54_17  D17  1
    x_54_18  COST  933515  S54  1
    x_54_18  D18  1
    x_54_19  COST  307476  S54  1
    x_54_19  D19  1
    x_54_20  COST  958975  S54  1
    x_54_20  D20  1
    x_54_21  COST  462827  S54  1
    x_54_21  D21  1
    x_54_22  COST  637349  S54  1
    x_54_22  D22  1
    x_54_23  COST  985553  S54  1
    x_54_23  D23  1
    x_54_24  COST  405732  S54  1
    x_54_24  D24  1
    x_54_25  COST  267555  S54  1
    x_54_25  D25  1
    x_54_26  COST  894367  S54  1
    x_54_26  D26  1
    x_54_27  COST  876667  S54  1
    x_54_27  D27  1
    x_54_28  COST  128331  S54  1
    x_54_28  D28  1
    x_54_29  COST  682422  S54  1
    x_54_29  D29  1
    x_54_30  COST  591991  S54  1
    x_54_30  D30  1
    x_54_31  COST  971755  S54  1
    x_54_31  D31  1
    x_54_32  COST  403573  S54  1
    x_54_32  D32  1
    x_54_33  COST  917934  S54  1
    x_54_33  D33  1
    x_54_34  COST  116154  S54  1
    x_54_34  D34  1
    x_54_35  COST  174617  S54  1
    x_54_35  D35  1
    x_54_36  COST  633585  S54  1
    x_54_36  D36  1
    x_54_37  COST  131387  S54  1
    x_54_37  D37  1
    x_54_38  COST  511017  S54  1
    x_54_38  D38  1
    x_54_39  COST  559720  S54  1
    x_54_39  D39  1
    x_54_40  COST  63986  S54  1
    x_54_40  D40  1
    x_54_41  COST  909931  S54  1
    x_54_41  D41  1
    x_54_42  COST  854990  S54  1
    x_54_42  D42  1
    x_54_43  COST  457598  S54  1
    x_54_43  D43  1
    x_54_44  COST  131402  S54  1
    x_54_44  D44  1
    x_54_45  COST  327  S54  1
    x_54_45  D45  1
    x_54_46  COST  959172  S54  1
    x_54_46  D46  1
    x_54_47  COST  413997  S54  1
    x_54_47  D47  1
    x_54_48  COST  287544  S54  1
    x_54_48  D48  1
    x_54_49  COST  818674  S54  1
    x_54_49  D49  1
    x_54_50  COST  505072  S54  1
    x_54_50  D50  1
    x_54_51  COST  861078  S54  1
    x_54_51  D51  1
    x_54_52  COST  169732  S54  1
    x_54_52  D52  1
    x_54_53  COST  134586  S54  1
    x_54_53  D53  1
    x_54_54  COST  449065  S54  1
    x_54_54  D54  1
    x_54_55  COST  644319  S54  1
    x_54_55  D55  1
    x_54_56  COST  815398  S54  1
    x_54_56  D56  1
    x_54_57  COST  716837  S54  1
    x_54_57  D57  1
    x_54_58  COST  633624  S54  1
    x_54_58  D58  1
    x_54_59  COST  325252  S54  1
    x_54_59  D59  1
    x_55_0  COST  655625  S55  1
    x_55_0  D0  1
    x_55_1  COST  136152  S55  1
    x_55_1  D1  1
    x_55_2  COST  558615  S55  1
    x_55_2  D2  1
    x_55_3  COST  164597  S55  1
    x_55_3  D3  1
    x_55_4  COST  730515  S55  1
    x_55_4  D4  1
    x_55_5  COST  429258  S55  1
    x_55_5  D5  1
    x_55_6  COST  960276  S55  1
    x_55_6  D6  1
    x_55_7  COST  908805  S55  1
    x_55_7  D7  1
    x_55_8  COST  838131  S55  1
    x_55_8  D8  1
    x_55_9  COST  704494  S55  1
    x_55_9  D9  1
    x_55_10  COST  814139  S55  1
    x_55_10  D10  1
    x_55_11  COST  296187  S55  1
    x_55_11  D11  1
    x_55_12  COST  575088  S55  1
    x_55_12  D12  1
    x_55_13  COST  712429  S55  1
    x_55_13  D13  1
    x_55_14  COST  516427  S55  1
    x_55_14  D14  1
    x_55_15  COST  70815  S55  1
    x_55_15  D15  1
    x_55_16  COST  794992  S55  1
    x_55_16  D16  1
    x_55_17  COST  323727  S55  1
    x_55_17  D17  1
    x_55_18  COST  834553  S55  1
    x_55_18  D18  1
    x_55_19  COST  541996  S55  1
    x_55_19  D19  1
    x_55_20  COST  416065  S55  1
    x_55_20  D20  1
    x_55_21  COST  509107  S55  1
    x_55_21  D21  1
    x_55_22  COST  357251  S55  1
    x_55_22  D22  1
    x_55_23  COST  501055  S55  1
    x_55_23  D23  1
    x_55_24  COST  332654  S55  1
    x_55_24  D24  1
    x_55_25  COST  647685  S55  1
    x_55_25  D25  1
    x_55_26  COST  796597  S55  1
    x_55_26  D26  1
    x_55_27  COST  670042  S55  1
    x_55_27  D27  1
    x_55_28  COST  506479  S55  1
    x_55_28  D28  1
    x_55_29  COST  256190  S55  1
    x_55_29  D29  1
    x_55_30  COST  121255  S55  1
    x_55_30  D30  1
    x_55_31  COST  38299  S55  1
    x_55_31  D31  1
    x_55_32  COST  154268  S55  1
    x_55_32  D32  1
    x_55_33  COST  913425  S55  1
    x_55_33  D33  1
    x_55_34  COST  568125  S55  1
    x_55_34  D34  1
    x_55_35  COST  656541  S55  1
    x_55_35  D35  1
    x_55_36  COST  794901  S55  1
    x_55_36  D36  1
    x_55_37  COST  299388  S55  1
    x_55_37  D37  1
    x_55_38  COST  895347  S55  1
    x_55_38  D38  1
    x_55_39  COST  316668  S55  1
    x_55_39  D39  1
    x_55_40  COST  693936  S55  1
    x_55_40  D40  1
    x_55_41  COST  601847  S55  1
    x_55_41  D41  1
    x_55_42  COST  175393  S55  1
    x_55_42  D42  1
    x_55_43  COST  55683  S55  1
    x_55_43  D43  1
    x_55_44  COST  293934  S55  1
    x_55_44  D44  1
    x_55_45  COST  316179  S55  1
    x_55_45  D45  1
    x_55_46  COST  450993  S55  1
    x_55_46  D46  1
    x_55_47  COST  311288  S55  1
    x_55_47  D47  1
    x_55_48  COST  648415  S55  1
    x_55_48  D48  1
    x_55_49  COST  582456  S55  1
    x_55_49  D49  1
    x_55_50  COST  594310  S55  1
    x_55_50  D50  1
    x_55_51  COST  664184  S55  1
    x_55_51  D51  1
    x_55_52  COST  353516  S55  1
    x_55_52  D52  1
    x_55_53  COST  668048  S55  1
    x_55_53  D53  1
    x_55_54  COST  778298  S55  1
    x_55_54  D54  1
    x_55_55  COST  484645  S55  1
    x_55_55  D55  1
    x_55_56  COST  658294  S55  1
    x_55_56  D56  1
    x_55_57  COST  845693  S55  1
    x_55_57  D57  1
    x_55_58  COST  362012  S55  1
    x_55_58  D58  1
    x_55_59  COST  875095  S55  1
    x_55_59  D59  1
    x_56_0  COST  146776  S56  1
    x_56_0  D0  1
    x_56_1  COST  600838  S56  1
    x_56_1  D1  1
    x_56_2  COST  695382  S56  1
    x_56_2  D2  1
    x_56_3  COST  135397  S56  1
    x_56_3  D3  1
    x_56_4  COST  872892  S56  1
    x_56_4  D4  1
    x_56_5  COST  381807  S56  1
    x_56_5  D5  1
    x_56_6  COST  35081  S56  1
    x_56_6  D6  1
    x_56_7  COST  123439  S56  1
    x_56_7  D7  1
    x_56_8  COST  742150  S56  1
    x_56_8  D8  1
    x_56_9  COST  70532  S56  1
    x_56_9  D9  1
    x_56_10  COST  576041  S56  1
    x_56_10  D10  1
    x_56_11  COST  614571  S56  1
    x_56_11  D11  1
    x_56_12  COST  503221  S56  1
    x_56_12  D12  1
    x_56_13  COST  730634  S56  1
    x_56_13  D13  1
    x_56_14  COST  70728  S56  1
    x_56_14  D14  1
    x_56_15  COST  191159  S56  1
    x_56_15  D15  1
    x_56_16  COST  31385  S56  1
    x_56_16  D16  1
    x_56_17  COST  222950  S56  1
    x_56_17  D17  1
    x_56_18  COST  831757  S56  1
    x_56_18  D18  1
    x_56_19  COST  590013  S56  1
    x_56_19  D19  1
    x_56_20  COST  689263  S56  1
    x_56_20  D20  1
    x_56_21  COST  936901  S56  1
    x_56_21  D21  1
    x_56_22  COST  153932  S56  1
    x_56_22  D22  1
    x_56_23  COST  743571  S56  1
    x_56_23  D23  1
    x_56_24  COST  938134  S56  1
    x_56_24  D24  1
    x_56_25  COST  150186  S56  1
    x_56_25  D25  1
    x_56_26  COST  146585  S56  1
    x_56_26  D26  1
    x_56_27  COST  941663  S56  1
    x_56_27  D27  1
    x_56_28  COST  404768  S56  1
    x_56_28  D28  1
    x_56_29  COST  892563  S56  1
    x_56_29  D29  1
    x_56_30  COST  82392  S56  1
    x_56_30  D30  1
    x_56_31  COST  457855  S56  1
    x_56_31  D31  1
    x_56_32  COST  895869  S56  1
    x_56_32  D32  1
    x_56_33  COST  539534  S56  1
    x_56_33  D33  1
    x_56_34  COST  483830  S56  1
    x_56_34  D34  1
    x_56_35  COST  692792  S56  1
    x_56_35  D35  1
    x_56_36  COST  744833  S56  1
    x_56_36  D36  1
    x_56_37  COST  494375  S56  1
    x_56_37  D37  1
    x_56_38  COST  473925  S56  1
    x_56_38  D38  1
    x_56_39  COST  392738  S56  1
    x_56_39  D39  1
    x_56_40  COST  776070  S56  1
    x_56_40  D40  1
    x_56_41  COST  291156  S56  1
    x_56_41  D41  1
    x_56_42  COST  256457  S56  1
    x_56_42  D42  1
    x_56_43  COST  490819  S56  1
    x_56_43  D43  1
    x_56_44  COST  84248  S56  1
    x_56_44  D44  1
    x_56_45  COST  754263  S56  1
    x_56_45  D45  1
    x_56_46  COST  759217  S56  1
    x_56_46  D46  1
    x_56_47  COST  100336  S56  1
    x_56_47  D47  1
    x_56_48  COST  760502  S56  1
    x_56_48  D48  1
    x_56_49  COST  102725  S56  1
    x_56_49  D49  1
    x_56_50  COST  96061  S56  1
    x_56_50  D50  1
    x_56_51  COST  697075  S56  1
    x_56_51  D51  1
    x_56_52  COST  966660  S56  1
    x_56_52  D52  1
    x_56_53  COST  661176  S56  1
    x_56_53  D53  1
    x_56_54  COST  100481  S56  1
    x_56_54  D54  1
    x_56_55  COST  139167  S56  1
    x_56_55  D55  1
    x_56_56  COST  876192  S56  1
    x_56_56  D56  1
    x_56_57  COST  805130  S56  1
    x_56_57  D57  1
    x_56_58  COST  412407  S56  1
    x_56_58  D58  1
    x_56_59  COST  986135  S56  1
    x_56_59  D59  1
    x_57_0  COST  12707  S57  1
    x_57_0  D0  1
    x_57_1  COST  645661  S57  1
    x_57_1  D1  1
    x_57_2  COST  520244  S57  1
    x_57_2  D2  1
    x_57_3  COST  59243  S57  1
    x_57_3  D3  1
    x_57_4  COST  876191  S57  1
    x_57_4  D4  1
    x_57_5  COST  106192  S57  1
    x_57_5  D5  1
    x_57_6  COST  73551  S57  1
    x_57_6  D6  1
    x_57_7  COST  515862  S57  1
    x_57_7  D7  1
    x_57_8  COST  1466  S57  1
    x_57_8  D8  1
    x_57_9  COST  449424  S57  1
    x_57_9  D9  1
    x_57_10  COST  490995  S57  1
    x_57_10  D10  1
    x_57_11  COST  215471  S57  1
    x_57_11  D11  1
    x_57_12  COST  960918  S57  1
    x_57_12  D12  1
    x_57_13  COST  651317  S57  1
    x_57_13  D13  1
    x_57_14  COST  455126  S57  1
    x_57_14  D14  1
    x_57_15  COST  224637  S57  1
    x_57_15  D15  1
    x_57_16  COST  415704  S57  1
    x_57_16  D16  1
    x_57_17  COST  852996  S57  1
    x_57_17  D17  1
    x_57_18  COST  726349  S57  1
    x_57_18  D18  1
    x_57_19  COST  771855  S57  1
    x_57_19  D19  1
    x_57_20  COST  552389  S57  1
    x_57_20  D20  1
    x_57_21  COST  32711  S57  1
    x_57_21  D21  1
    x_57_22  COST  157836  S57  1
    x_57_22  D22  1
    x_57_23  COST  59312  S57  1
    x_57_23  D23  1
    x_57_24  COST  750390  S57  1
    x_57_24  D24  1
    x_57_25  COST  853811  S57  1
    x_57_25  D25  1
    x_57_26  COST  478455  S57  1
    x_57_26  D26  1
    x_57_27  COST  191339  S57  1
    x_57_27  D27  1
    x_57_28  COST  994144  S57  1
    x_57_28  D28  1
    x_57_29  COST  202047  S57  1
    x_57_29  D29  1
    x_57_30  COST  489139  S57  1
    x_57_30  D30  1
    x_57_31  COST  634796  S57  1
    x_57_31  D31  1
    x_57_32  COST  945187  S57  1
    x_57_32  D32  1
    x_57_33  COST  643703  S57  1
    x_57_33  D33  1
    x_57_34  COST  121213  S57  1
    x_57_34  D34  1
    x_57_35  COST  542794  S57  1
    x_57_35  D35  1
    x_57_36  COST  419155  S57  1
    x_57_36  D36  1
    x_57_37  COST  431047  S57  1
    x_57_37  D37  1
    x_57_38  COST  485652  S57  1
    x_57_38  D38  1
    x_57_39  COST  371153  S57  1
    x_57_39  D39  1
    x_57_40  COST  235625  S57  1
    x_57_40  D40  1
    x_57_41  COST  968002  S57  1
    x_57_41  D41  1
    x_57_42  COST  195762  S57  1
    x_57_42  D42  1
    x_57_43  COST  795218  S57  1
    x_57_43  D43  1
    x_57_44  COST  84573  S57  1
    x_57_44  D44  1
    x_57_45  COST  607900  S57  1
    x_57_45  D45  1
    x_57_46  COST  756395  S57  1
    x_57_46  D46  1
    x_57_47  COST  655940  S57  1
    x_57_47  D47  1
    x_57_48  COST  798243  S57  1
    x_57_48  D48  1
    x_57_49  COST  310353  S57  1
    x_57_49  D49  1
    x_57_50  COST  333272  S57  1
    x_57_50  D50  1
    x_57_51  COST  629212  S57  1
    x_57_51  D51  1
    x_57_52  COST  232052  S57  1
    x_57_52  D52  1
    x_57_53  COST  954993  S57  1
    x_57_53  D53  1
    x_57_54  COST  193119  S57  1
    x_57_54  D54  1
    x_57_55  COST  598667  S57  1
    x_57_55  D55  1
    x_57_56  COST  342739  S57  1
    x_57_56  D56  1
    x_57_57  COST  183797  S57  1
    x_57_57  D57  1
    x_57_58  COST  625486  S57  1
    x_57_58  D58  1
    x_57_59  COST  896884  S57  1
    x_57_59  D59  1
    x_58_0  COST  676794  S58  1
    x_58_0  D0  1
    x_58_1  COST  988197  S58  1
    x_58_1  D1  1
    x_58_2  COST  542556  S58  1
    x_58_2  D2  1
    x_58_3  COST  230908  S58  1
    x_58_3  D3  1
    x_58_4  COST  926498  S58  1
    x_58_4  D4  1
    x_58_5  COST  823855  S58  1
    x_58_5  D5  1
    x_58_6  COST  325521  S58  1
    x_58_6  D6  1
    x_58_7  COST  700151  S58  1
    x_58_7  D7  1
    x_58_8  COST  119752  S58  1
    x_58_8  D8  1
    x_58_9  COST  962547  S58  1
    x_58_9  D9  1
    x_58_10  COST  873929  S58  1
    x_58_10  D10  1
    x_58_11  COST  316011  S58  1
    x_58_11  D11  1
    x_58_12  COST  511099  S58  1
    x_58_12  D12  1
    x_58_13  COST  515992  S58  1
    x_58_13  D13  1
    x_58_14  COST  427350  S58  1
    x_58_14  D14  1
    x_58_15  COST  498150  S58  1
    x_58_15  D15  1
    x_58_16  COST  287229  S58  1
    x_58_16  D16  1
    x_58_17  COST  236475  S58  1
    x_58_17  D17  1
    x_58_18  COST  148242  S58  1
    x_58_18  D18  1
    x_58_19  COST  117886  S58  1
    x_58_19  D19  1
    x_58_20  COST  436462  S58  1
    x_58_20  D20  1
    x_58_21  COST  414152  S58  1
    x_58_21  D21  1
    x_58_22  COST  93417  S58  1
    x_58_22  D22  1
    x_58_23  COST  726678  S58  1
    x_58_23  D23  1
    x_58_24  COST  27148  S58  1
    x_58_24  D24  1
    x_58_25  COST  583733  S58  1
    x_58_25  D25  1
    x_58_26  COST  747365  S58  1
    x_58_26  D26  1
    x_58_27  COST  979828  S58  1
    x_58_27  D27  1
    x_58_28  COST  911803  S58  1
    x_58_28  D28  1
    x_58_29  COST  493787  S58  1
    x_58_29  D29  1
    x_58_30  COST  807088  S58  1
    x_58_30  D30  1
    x_58_31  COST  988757  S58  1
    x_58_31  D31  1
    x_58_32  COST  593368  S58  1
    x_58_32  D32  1
    x_58_33  COST  285313  S58  1
    x_58_33  D33  1
    x_58_34  COST  987740  S58  1
    x_58_34  D34  1
    x_58_35  COST  509973  S58  1
    x_58_35  D35  1
    x_58_36  COST  676052  S58  1
    x_58_36  D36  1
    x_58_37  COST  258798  S58  1
    x_58_37  D37  1
    x_58_38  COST  826318  S58  1
    x_58_38  D38  1
    x_58_39  COST  522757  S58  1
    x_58_39  D39  1
    x_58_40  COST  171086  S58  1
    x_58_40  D40  1
    x_58_41  COST  484001  S58  1
    x_58_41  D41  1
    x_58_42  COST  339117  S58  1
    x_58_42  D42  1
    x_58_43  COST  713434  S58  1
    x_58_43  D43  1
    x_58_44  COST  942931  S58  1
    x_58_44  D44  1
    x_58_45  COST  486900  S58  1
    x_58_45  D45  1
    x_58_46  COST  772797  S58  1
    x_58_46  D46  1
    x_58_47  COST  500352  S58  1
    x_58_47  D47  1
    x_58_48  COST  496747  S58  1
    x_58_48  D48  1
    x_58_49  COST  548052  S58  1
    x_58_49  D49  1
    x_58_50  COST  580399  S58  1
    x_58_50  D50  1
    x_58_51  COST  131413  S58  1
    x_58_51  D51  1
    x_58_52  COST  741030  S58  1
    x_58_52  D52  1
    x_58_53  COST  946469  S58  1
    x_58_53  D53  1
    x_58_54  COST  867535  S58  1
    x_58_54  D54  1
    x_58_55  COST  633420  S58  1
    x_58_55  D55  1
    x_58_56  COST  943154  S58  1
    x_58_56  D56  1
    x_58_57  COST  488276  S58  1
    x_58_57  D57  1
    x_58_58  COST  907575  S58  1
    x_58_58  D58  1
    x_58_59  COST  506292  S58  1
    x_58_59  D59  1
    x_59_0  COST  333982  S59  1
    x_59_0  D0  1
    x_59_1  COST  504824  S59  1
    x_59_1  D1  1
    x_59_2  COST  922181  S59  1
    x_59_2  D2  1
    x_59_3  COST  992866  S59  1
    x_59_3  D3  1
    x_59_4  COST  634831  S59  1
    x_59_4  D4  1
    x_59_5  COST  527284  S59  1
    x_59_5  D5  1
    x_59_6  COST  511621  S59  1
    x_59_6  D6  1
    x_59_7  COST  477108  S59  1
    x_59_7  D7  1
    x_59_8  COST  827839  S59  1
    x_59_8  D8  1
    x_59_9  COST  74109  S59  1
    x_59_9  D9  1
    x_59_10  COST  576723  S59  1
    x_59_10  D10  1
    x_59_11  COST  365763  S59  1
    x_59_11  D11  1
    x_59_12  COST  424214  S59  1
    x_59_12  D12  1
    x_59_13  COST  886493  S59  1
    x_59_13  D13  1
    x_59_14  COST  560267  S59  1
    x_59_14  D14  1
    x_59_15  COST  724911  S59  1
    x_59_15  D15  1
    x_59_16  COST  313471  S59  1
    x_59_16  D16  1
    x_59_17  COST  954403  S59  1
    x_59_17  D17  1
    x_59_18  COST  493590  S59  1
    x_59_18  D18  1
    x_59_19  COST  20795  S59  1
    x_59_19  D19  1
    x_59_20  COST  923239  S59  1
    x_59_20  D20  1
    x_59_21  COST  495384  S59  1
    x_59_21  D21  1
    x_59_22  COST  296201  S59  1
    x_59_22  D22  1
    x_59_23  COST  901083  S59  1
    x_59_23  D23  1
    x_59_24  COST  969140  S59  1
    x_59_24  D24  1
    x_59_25  COST  690028  S59  1
    x_59_25  D25  1
    x_59_26  COST  511049  S59  1
    x_59_26  D26  1
    x_59_27  COST  302552  S59  1
    x_59_27  D27  1
    x_59_28  COST  401430  S59  1
    x_59_28  D28  1
    x_59_29  COST  75664  S59  1
    x_59_29  D29  1
    x_59_30  COST  22353  S59  1
    x_59_30  D30  1
    x_59_31  COST  417345  S59  1
    x_59_31  D31  1
    x_59_32  COST  939414  S59  1
    x_59_32  D32  1
    x_59_33  COST  983162  S59  1
    x_59_33  D33  1
    x_59_34  COST  512023  S59  1
    x_59_34  D34  1
    x_59_35  COST  835766  S59  1
    x_59_35  D35  1
    x_59_36  COST  181892  S59  1
    x_59_36  D36  1
    x_59_37  COST  307818  S59  1
    x_59_37  D37  1
    x_59_38  COST  2717  S59  1
    x_59_38  D38  1
    x_59_39  COST  185922  S59  1
    x_59_39  D39  1
    x_59_40  COST  735746  S59  1
    x_59_40  D40  1
    x_59_41  COST  127552  S59  1
    x_59_41  D41  1
    x_59_42  COST  265475  S59  1
    x_59_42  D42  1
    x_59_43  COST  476756  S59  1
    x_59_43  D43  1
    x_59_44  COST  551927  S59  1
    x_59_44  D44  1
    x_59_45  COST  961885  S59  1
    x_59_45  D45  1
    x_59_46  COST  956371  S59  1
    x_59_46  D46  1
    x_59_47  COST  485375  S59  1
    x_59_47  D47  1
    x_59_48  COST  756055  S59  1
    x_59_48  D48  1
    x_59_49  COST  988641  S59  1
    x_59_49  D49  1
    x_59_50  COST  424787  S59  1
    x_59_50  D50  1
    x_59_51  COST  23629  S59  1
    x_59_51  D51  1
    x_59_52  COST  445366  S59  1
    x_59_52  D52  1
    x_59_53  COST  368616  S59  1
    x_59_53  D53  1
    x_59_54  COST  498664  S59  1
    x_59_54  D54  1
    x_59_55  COST  412118  S59  1
    x_59_55  D55  1
    x_59_56  COST  220589  S59  1
    x_59_56  D56  1
    x_59_57  COST  332713  S59  1
    x_59_57  D57  1
    x_59_58  COST  569456  S59  1
    x_59_58  D58  1
    x_59_59  COST  594895  S59  1
    x_59_59  D59  1
RHS
    RHS  S0  126
    RHS  S1  145
    RHS  S2  61
    RHS  S3  140
    RHS  S4  64
    RHS  S5  55
    RHS  S6  134
    RHS  S7  140
    RHS  S8  75
    RHS  S9  122
    RHS  S10  126
    RHS  S11  110
    RHS  S12  90
    RHS  S13  81
    RHS  S14  134
    RHS  S15  80
    RHS  S16  150
    RHS  S17  150
    RHS  S18  137
    RHS  S19  77
    RHS  S20  112
    RHS  S21  79
    RHS  S22  54
    RHS  S23  53
    RHS  S24  62
    RHS  S25  67
    RHS  S26  87
    RHS  S27  83
    RHS  S28  117
    RHS  S29  114
    RHS  S30  100
    RHS  S31  51
    RHS  S32  77
    RHS  S33  121
    RHS  S34  93
    RHS  S35  140
    RHS  S36  117
    RHS  S37  78
    RHS  S38  66
    RHS  S39  129
    RHS  S40  64
    RHS  S41  106
    RHS  S42  110
    RHS  S43  85
    RHS  S44  54
    RHS  S45  107
    RHS  S46  83
    RHS  S47  62
    RHS  S48  116
    RHS  S49  147
    RHS  S50  69
    RHS  S51  105
    RHS  S52  106
    RHS  S53  116
    RHS  S54  79
    RHS  S55  52
    RHS  S56  122
    RHS  S57  58
    RHS  S58  78
    RHS  S59  57
    RHS  D0  61
    RHS  D1  132
    RHS  D2  106
    RHS  D3  82
    RHS  D4  73
    RHS  D5  69
    RHS  D6  120
    RHS  D7  64
    RHS  D8  133
    RHS  D9  59
    RHS  D10  123
    RHS  D11  103
    RHS  D12  115
    RHS  D13  131
    RHS  D14  78
    RHS  D15  98
    RHS  D16  51
    RHS  D17  64
    RHS  D18  81
    RHS  D19  61
    RHS  D20  122
    RHS  D21  97
    RHS  D22  118
    RHS  D23  63
    RHS  D24  90
    RHS  D25  141
    RHS  D26  55
    RHS  D27  104
    RHS  D28  75
    RHS  D29  95
    RHS  D30  138
    RHS  D31  123
    RHS  D32  66
    RHS  D33  62
    RHS  D34  122
    RHS  D35  147
    RHS  D36  75
    RHS  D37  151
    RHS  D38  94
    RHS  D39  59
    RHS  D40  56
    RHS  D41  52
    RHS  D42  137
    RHS  D43  113
    RHS  D44  90
    RHS  D45  52
    RHS  D46  152
    RHS  D47  79
    RHS  D48  90
    RHS  D49  63
    RHS  D50  153
    RHS  D51  54
    RHS  D52  118
    RHS  D53  103
    RHS  D54  135
    RHS  D55  118
    RHS  D56  107
    RHS  D57  111
    RHS  D58  74
    RHS  D59  115
ENDATA
