NAME REFINERY_12x12
ROWS
 N  MARGIN
 G  LOTMIN_0_0
 L  LOTMAX_0_0
 E  CBAL_0_0
 L  CDU_0
 G  LOTMIN_1_0
 L  LOTMAX_1_0
 E  CBAL_1_0
 G  LOTMIN_2_0
 L  LOTMAX_2_0
 E  CBAL_2_0
 G  LOTMIN_3_0
 L  LOTMAX_3_0
 E  CBAL_3_0
 G  LOTMIN_4_0
 L  LOTMAX_4_0
 E  CBAL_4_0
 G  LOTMIN_5_0
 L  LOTMAX_5_0
 E  CBAL_5_0
 G  LOTMIN_6_0
 L  LOTMAX_6_0
 E  CBAL_6_0
 G  LOTMIN_7_0
 L  LOTMAX_7_0
 E  CBAL_7_0
 G  LOTMIN_8_0
 L  LOTMAX_8_0
 E  CBAL_8_0
 G  LOTMIN_9_0
 L  LOTMAX_9_0
 E  CBAL_9_0
 G  LOTMIN_10_0
 L  LOTMAX_10_0
 E  CBAL_10_0
 G  LOTMIN_11_0
 L  LOTMAX_11_0
 E  CBAL_11_0
 E  CUT_lpg_0
 E  CUTS_lpg_0
 E  CUT_nap_0
 E  CUTS_nap_0
 E  CUT_ker_0
 E  CUTS_ker_0
 E  CUT_gso_0
 E  CUTS_gso_0
 E  CUT_vgo_0
 E  CUTS_vgo_0
 E  CUT_res_0
 E  CUTS_res_0
 G  FCCMIN_0
 L  FCCMAX_0
 E  VGO_0
 E  NAP_0
 E  KER_0
 E  GSO_0
 E  RES_0
 E  LPGP_0
 E  GAS_0
 G  GASOCT_0
 E  JET_0
 E  DSL_0
 E  FO_0
 L  DSLS_0
 L  JETS_0
 L  SULF_0
 E  PBAL_lpg_0
 E  PBAL_gas_0
 E  PBAL_jet_0
 E  PBAL_dsl_0
 E  PBAL_fo_0
 G  LOTMIN_0_1
 L  LOTMAX_0_1
 E  CBAL_0_1
 L  CDU_1
 G  LOTMIN_1_1
 L  LOTMAX_1_1
 E  CBAL_1_1
 G  LOTMIN_2_1
 L  LOTMAX_2_1
 E  CBAL_2_1
 G  LOTMIN_3_1
 L  LOTMAX_3_1
 E  CBAL_3_1
 G  LOTMIN_4_1
 L  LOTMAX_4_1
 E  CBAL_4_1
 G  LOTMIN_5_1
 L  LOTMAX_5_1
 E  CBAL_5_1
 G  LOTMIN_6_1
 L  LOTMAX_6_1
 E  CBAL_6_1
 G  LOTMIN_7_1
 L  LOTMAX_7_1
 E  CBAL_7_1
 G  LOTMIN_8_1
 L  LOTMAX_8_1
 E  CBAL_8_1
 G  LOTMIN_9_1
 L  LOTMAX_9_1
 E  CBAL_9_1
 G  LOTMIN_10_1
 L  LOTMAX_10_1
 E  CBAL_10_1
 G  LOTMIN_11_1
 L  LOTMAX_11_1
 E  CBAL_11_1
 E  CUT_lpg_1
 E  CUTS_lpg_1
 E  CUT_nap_1
 E  CUTS_nap_1
 E  CUT_ker_1
 E  CUTS_ker_1
 E  CUT_gso_1
 E  CUTS_gso_1
 E  CUT_vgo_1
 E  CUTS_vgo_1
 E  CUT_res_1
 E  CUTS_res_1
 G  FCCMIN_1
 L  FCCMAX_1
 E  VGO_1
 E  NAP_1
 E  KER_1
 E  GSO_1
 E  RES_1
 E  LPGP_1
 E  GAS_1
 G  GASOCT_1
 E  JET_1
 E  DSL_1
 E  FO_1
 L  DSLS_1
 L  JETS_1
 L  SULF_1
 E  PBAL_lpg_1
 E  PBAL_gas_1
 E  PBAL_jet_1
 E  PBAL_dsl_1
 E  PBAL_fo_1
 G  LOTMIN_0_2
 L  LOTMAX_0_2
 E  CBAL_0_2
 L  CDU_2
 G  LOTMIN_1_2
 L  LOTMAX_1_2
 E  CBAL_1_2
 G  LOTMIN_2_2
 L  LOTMAX_2_2
 E  CBAL_2_2
 G  LOTMIN_3_2
 L  LOTMAX_3_2
 E  CBAL_3_2
 G  LOTMIN_4_2
 L  LOTMAX_4_2
 E  CBAL_4_2
 G  LOTMIN_5_2
 L  LOTMAX_5_2
 E  CBAL_5_2
 G  LOTMIN_6_2
 L  LOTMAX_6_2
 E  CBAL_6_2
 G  LOTMIN_7_2
 L  LOTMAX_7_2
 E  CBAL_7_2
 G  LOTMIN_8_2
 L  LOTMAX_8_2
 E  CBAL_8_2
 G  LOTMIN_9_2
 L  LOTMAX_9_2
 E  CBAL_9_2
 G  LOTMIN_10_2
 L  LOTMAX_10_2
 E  CBAL_10_2
 G  LOTMIN_11_2
 L  LOTMAX_11_2
 E  CBAL_11_2
 E  CUT_lpg_2
 E  CUTS_lpg_2
 E  CUT_nap_2
 E  CUTS_nap_2
 E  CUT_ker_2
 E  CUTS_ker_2
 E  CUT_gso_2
 E  CUTS_gso_2
 E  CUT_vgo_2
 E  CUTS_vgo_2
 E  CUT_res_2
 E  CUTS_res_2
 G  FCCMIN_2
 L  FCCMAX_2
 E  VGO_2
 E  NAP_2
 E  KER_2
 E  GSO_2
 E  RES_2
 E  LPGP_2
 E  GAS_2
 G  GASOCT_2
 E  JET_2
 E  DSL_2
 E  FO_2
 L  DSLS_2
 L  JETS_2
 L  SULF_2
 E  PBAL_lpg_2
 E  PBAL_gas_2
 E  PBAL_jet_2
 E  PBAL_dsl_2
 E  PBAL_fo_2
 G  LOTMIN_0_3
 L  LOTMAX_0_3
 E  CBAL_0_3
 L  CDU_3
 G  LOTMIN_1_3
 L  LOTMAX_1_3
 E  CBAL_1_3
 G  LOTMIN_2_3
 L  LOTMAX_2_3
 E  CBAL_2_3
 G  LOTMIN_3_3
 L  LOTMAX_3_3
 E  CBAL_3_3
 G  LOTMIN_4_3
 L  LOTMAX_4_3
 E  CBAL_4_3
 G  LOTMIN_5_3
 L  LOTMAX_5_3
 E  CBAL_5_3
 G  LOTMIN_6_3
 L  LOTMAX_6_3
 E  CBAL_6_3
 G  LOTMIN_7_3
 L  LOTMAX_7_3
 E  CBAL_7_3
 G  LOTMIN_8_3
 L  LOTMAX_8_3
 E  CBAL_8_3
 G  LOTMIN_9_3
 L  LOTMAX_9_3
 E  CBAL_9_3
 G  LOTMIN_10_3
 L  LOTMAX_10_3
 E  CBAL_10_3
 G  LOTMIN_11_3
 L  LOTMAX_11_3
 E  CBAL_11_3
 E  CUT_lpg_3
 E  CUTS_lpg_3
 E  CUT_nap_3
 E  CUTS_nap_3
 E  CUT_ker_3
 E  CUTS_ker_3
 E  CUT_gso_3
 E  CUTS_gso_3
 E  CUT_vgo_3
 E  CUTS_vgo_3
 E  CUT_res_3
 E  CUTS_res_3
 G  FCCMIN_3
 L  FCCMAX_3
 E  VGO_3
 E  NAP_3
 E  KER_3
 E  GSO_3
 E  RES_3
 E  LPGP_3
 E  GAS_3
 G  GASOCT_3
 E  JET_3
 E  DSL_3
 E  FO_3
 L  DSLS_3
 L  JETS_3
 L  SULF_3
 E  PBAL_lpg_3
 E  PBAL_gas_3
 E  PBAL_jet_3
 E  PBAL_dsl_3
 E  PBAL_fo_3
 G  LOTMIN_0_4
 L  LOTMAX_0_4
 E  CBAL_0_4
 L  CDU_4
 G  LOTMIN_1_4
 L  LOTMAX_1_4
 E  CBAL_1_4
 G  LOTMIN_2_4
 L  LOTMAX_2_4
 E  CBAL_2_4
 G  LOTMIN_3_4
 L  LOTMAX_3_4
 E  CBAL_3_4
 G  LOTMIN_4_4
 L  LOTMAX_4_4
 E  CBAL_4_4
 G  LOTMIN_5_4
 L  LOTMAX_5_4
 E  CBAL_5_4
 G  LOTMIN_6_4
 L  LOTMAX_6_4
 E  CBAL_6_4
 G  LOTMIN_7_4
 L  LOTMAX_7_4
 E  CBAL_7_4
 G  LOTMIN_8_4
 L  LOTMAX_8_4
 E  CBAL_8_4
 G  LOTMIN_9_4
 L  LOTMAX_9_4
 E  CBAL_9_4
 G  LOTMIN_10_4
 L  LOTMAX_10_4
 E  CBAL_10_4
 G  LOTMIN_11_4
 L  LOTMAX_11_4
 E  CBAL_11_4
 E  CUT_lpg_4
 E  CUTS_lpg_4
 E  CUT_nap_4
 E  CUTS_nap_4
 E  CUT_ker_4
 E  CUTS_ker_4
 E  CUT_gso_4
 E  CUTS_gso_4
 E  CUT_vgo_4
 E  CUTS_vgo_4
 E  CUT_res_4
 E  CUTS_res_4
 G  FCCMIN_4
 L  FCCMAX_4
 E  VGO_4
 E  NAP_4
 E  KER_4
 E  GSO_4
 E  RES_4
 E  LPGP_4
 E  GAS_4
 G  GASOCT_4
 E  JET_4
 E  DSL_4
 E  FO_4
 L  DSLS_4
 L  JETS_4
 L  SULF_4
 E  PBAL_lpg_4
 E  PBAL_gas_4
 E  PBAL_jet_4
 E  PBAL_dsl_4
 E  PBAL_fo_4
 G  LOTMIN_0_5
 L  LOTMAX_0_5
 E  CBAL_0_5
 L  CDU_5
 G  LOTMIN_1_5
 L  LOTMAX_1_5
 E  CBAL_1_5
 G  LOTMIN_2_5
 L  LOTMAX_2_5
 E  CBAL_2_5
 G  LOTMIN_3_5
 L  LOTMAX_3_5
 E  CBAL_3_5
 G  LOTMIN_4_5
 L  LOTMAX_4_5
 E  CBAL_4_5
 G  LOTMIN_5_5
 L  LOTMAX_5_5
 E  CBAL_5_5
 G  LOTMIN_6_5
 L  LOTMAX_6_5
 E  CBAL_6_5
 G  LOTMIN_7_5
 L  LOTMAX_7_5
 E  CBAL_7_5
 G  LOTMIN_8_5
 L  LOTMAX_8_5
 E  CBAL_8_5
 G  LOTMIN_9_5
 L  LOTMAX_9_5
 E  CBAL_9_5
 G  LOTMIN_10_5
 L  LOTMAX_10_5
 E  CBAL_10_5
 G  LOTMIN_11_5
 L  LOTMAX_11_5
 E  CBAL_11_5
 E  CUT_lpg_5
 E  CUTS_lpg_5
 E  CUT_nap_5
 E  CUTS_nap_5
 E  CUT_ker_5
 E  CUTS_ker_5
 E  CUT_gso_5
 E  CUTS_gso_5
 E  CUT_vgo_5
 E  CUTS_vgo_5
 E  CUT_res_5
 E  CUTS_res_5
 G  FCCMIN_5
 L  FCCMAX_5
 E  VGO_5
 E  NAP_5
 E  KER_5
 E  GSO_5
 E  RES_5
 E  LPGP_5
 E  GAS_5
 G  GASOCT_5
 E  JET_5
 E  DSL_5
 E  FO_5
 L  DSLS_5
 L  JETS_5
 L  SULF_5
 E  PBAL_lpg_5
 E  PBAL_gas_5
 E  PBAL_jet_5
 E  PBAL_dsl_5
 E  PBAL_fo_5
 G  LOTMIN_0_6
 L  LOTMAX_0_6
 E  CBAL_0_6
 L  CDU_6
 G  LOTMIN_1_6
 L  LOTMAX_1_6
 E  CBAL_1_6
 G  LOTMIN_2_6
 L  LOTMAX_2_6
 E  CBAL_2_6
 G  LOTMIN_3_6
 L  LOTMAX_3_6
 E  CBAL_3_6
 G  LOTMIN_4_6
 L  LOTMAX_4_6
 E  CBAL_4_6
 G  LOTMIN_5_6
 L  LOTMAX_5_6
 E  CBAL_5_6
 G  LOTMIN_6_6
 L  LOTMAX_6_6
 E  CBAL_6_6
 G  LOTMIN_7_6
 L  LOTMAX_7_6
 E  CBAL_7_6
 G  LOTMIN_8_6
 L  LOTMAX_8_6
 E  CBAL_8_6
 G  LOTMIN_9_6
 L  LOTMAX_9_6
 E  CBAL_9_6
 G  LOTMIN_10_6
 L  LOTMAX_10_6
 E  CBAL_10_6
 G  LOTMIN_11_6
 L  LOTMAX_11_6
 E  CBAL_11_6
 E  CUT_lpg_6
 E  CUTS_lpg_6
 E  CUT_nap_6
 E  CUTS_nap_6
 E  CUT_ker_6
 E  CUTS_ker_6
 E  CUT_gso_6
 E  CUTS_gso_6
 E  CUT_vgo_6
 E  CUTS_vgo_6
 E  CUT_res_6
 E  CUTS_res_6
 G  FCCMIN_6
 L  FCCMAX_6
 E  VGO_6
 E  NAP_6
 E  KER_6
 E  GSO_6
 E  RES_6
 E  LPGP_6
 E  GAS_6
 G  GASOCT_6
 E  JET_6
 E  DSL_6
 E  FO_6
 L  DSLS_6
 L  JETS_6
 L  SULF_6
 E  PBAL_lpg_6
 E  PBAL_gas_6
 E  PBAL_jet_6
 E  PBAL_dsl_6
 E  PBAL_fo_6
 G  LOTMIN_0_7
 L  LOTMAX_0_7
 E  CBAL_0_7
 L  CDU_7
 G  LOTMIN_1_7
 L  LOTMAX_1_7
 E  CBAL_1_7
 G  LOTMIN_2_7
 L  LOTMAX_2_7
 E  CBAL_2_7
 G  LOTMIN_3_7
 L  LOTMAX_3_7
 E  CBAL_3_7
 G  LOTMIN_4_7
 L  LOTMAX_4_7
 E  CBAL_4_7
 G  LOTMIN_5_7
 L  LOTMAX_5_7
 E  CBAL_5_7
 G  LOTMIN_6_7
 L  LOTMAX_6_7
 E  CBAL_6_7
 G  LOTMIN_7_7
 L  LOTMAX_7_7
 E  CBAL_7_7
 G  LOTMIN_8_7
 L  LOTMAX_8_7
 E  CBAL_8_7
 G  LOTMIN_9_7
 L  LOTMAX_9_7
 E  CBAL_9_7
 G  LOTMIN_10_7
 L  LOTMAX_10_7
 E  CBAL_10_7
 G  LOTMIN_11_7
 L  LOTMAX_11_7
 E  CBAL_11_7
 E  CUT_lpg_7
 E  CUTS_lpg_7
 E  CUT_nap_7
 E  CUTS_nap_7
 E  CUT_ker_7
 E  CUTS_ker_7
 E  CUT_gso_7
 E  CUTS_gso_7
 E  CUT_vgo_7
 E  CUTS_vgo_7
 E  CUT_res_7
 E  CUTS_res_7
 G  FCCMIN_7
 L  FCCMAX_7
 E  VGO_7
 E  NAP_7
 E  KER_7
 E  GSO_7
 E  RES_7
 E  LPGP_7
 E  GAS_7
 G  GASOCT_7
 E  JET_7
 E  DSL_7
 E  FO_7
 L  DSLS_7
 L  JETS_7
 L  SULF_7
 E  PBAL_lpg_7
 E  PBAL_gas_7
 E  PBAL_jet_7
 E  PBAL_dsl_7
 E  PBAL_fo_7
 G  LOTMIN_0_8
 L  LOTMAX_0_8
 E  CBAL_0_8
 L  CDU_8
 G  LOTMIN_1_8
 L  LOTMAX_1_8
 E  CBAL_1_8
 G  LOTMIN_2_8
 L  LOTMAX_2_8
 E  CBAL_2_8
 G  LOTMIN_3_8
 L  LOTMAX_3_8
 E  CBAL_3_8
 G  LOTMIN_4_8
 L  LOTMAX_4_8
 E  CBAL_4_8
 G  LOTMIN_5_8
 L  LOTMAX_5_8
 E  CBAL_5_8
 G  LOTMIN_6_8
 L  LOTMAX_6_8
 E  CBAL_6_8
 G  LOTMIN_7_8
 L  LOTMAX_7_8
 E  CBAL_7_8
 G  LOTMIN_8_8
 L  LOTMAX_8_8
 E  CBAL_8_8
 G  LOTMIN_9_8
 L  LOTMAX_9_8
 E  CBAL_9_8
 G  LOTMIN_10_8
 L  LOTMAX_10_8
 E  CBAL_10_8
 G  LOTMIN_11_8
 L  LOTMAX_11_8
 E  CBAL_11_8
 E  CUT_lpg_8
 E  CUTS_lpg_8
 E  CUT_nap_8
 E  CUTS_nap_8
 E  CUT_ker_8
 E  CUTS_ker_8
 E  CUT_gso_8
 E  CUTS_gso_8
 E  CUT_vgo_8
 E  CUTS_vgo_8
 E  CUT_res_8
 E  CUTS_res_8
 G  FCCMIN_8
 L  FCCMAX_8
 E  VGO_8
 E  NAP_8
 E  KER_8
 E  GSO_8
 E  RES_8
 E  LPGP_8
 E  GAS_8
 G  GASOCT_8
 E  JET_8
 E  DSL_8
 E  FO_8
 L  DSLS_8
 L  JETS_8
 L  SULF_8
 E  PBAL_lpg_8
 E  PBAL_gas_8
 E  PBAL_jet_8
 E  PBAL_dsl_8
 E  PBAL_fo_8
 G  LOTMIN_0_9
 L  LOTMAX_0_9
 E  CBAL_0_9
 L  CDU_9
 G  LOTMIN_1_9
 L  LOTMAX_1_9
 E  CBAL_1_9
 G  LOTMIN_2_9
 L  LOTMAX_2_9
 E  CBAL_2_9
 G  LOTMIN_3_9
 L  LOTMAX_3_9
 E  CBAL_3_9
 G  LOTMIN_4_9
 L  LOTMAX_4_9
 E  CBAL_4_9
 G  LOTMIN_5_9
 L  LOTMAX_5_9
 E  CBAL_5_9
 G  LOTMIN_6_9
 L  LOTMAX_6_9
 E  CBAL_6_9
 G  LOTMIN_7_9
 L  LOTMAX_7_9
 E  CBAL_7_9
 G  LOTMIN_8_9
 L  LOTMAX_8_9
 E  CBAL_8_9
 G  LOTMIN_9_9
 L  LOTMAX_9_9
 E  CBAL_9_9
 G  LOTMIN_10_9
 L  LOTMAX_10_9
 E  CBAL_10_9
 G  LOTMIN_11_9
 L  LOTMAX_11_9
 E  CBAL_11_9
 E  CUT_lpg_9
 E  CUTS_lpg_9
 E  CUT_nap_9
 E  CUTS_nap_9
 E  CUT_ker_9
 E  CUTS_ker_9
 E  CUT_gso_9
 E  CUTS_gso_9
 E  CUT_vgo_9
 E  CUTS_vgo_9
 E  CUT_res_9
 E  CUTS_res_9
 G  FCCMIN_9
 L  FCCMAX_9
 E  VGO_9
 E  NAP_9
 E  KER_9
 E  GSO_9
 E  RES_9
 E  LPGP_9
 E  GAS_9
 G  GASOCT_9
 E  JET_9
 E  DSL_9
 E  FO_9
 L  DSLS_9
 L  JETS_9
 L  SULF_9
 E  PBAL_lpg_9
 E  PBAL_gas_9
 E  PBAL_jet_9
 E  PBAL_dsl_9
 E  PBAL_fo_9
 G  LOTMIN_0_10
 L  LOTMAX_0_10
 E  CBAL_0_10
 L  CDU_10
 G  LOTMIN_1_10
 L  LOTMAX_1_10
 E  CBAL_1_10
 G  LOTMIN_2_10
 L  LOTMAX_2_10
 E  CBAL_2_10
 G  LOTMIN_3_10
 L  LOTMAX_3_10
 E  CBAL_3_10
 G  LOTMIN_4_10
 L  LOTMAX_4_10
 E  CBAL_4_10
 G  LOTMIN_5_10
 L  LOTMAX_5_10
 E  CBAL_5_10
 G  LOTMIN_6_10
 L  LOTMAX_6_10
 E  CBAL_6_10
 G  LOTMIN_7_10
 L  LOTMAX_7_10
 E  CBAL_7_10
 G  LOTMIN_8_10
 L  LOTMAX_8_10
 E  CBAL_8_10
 G  LOTMIN_9_10
 L  LOTMAX_9_10
 E  CBAL_9_10
 G  LOTMIN_10_10
 L  LOTMAX_10_10
 E  CBAL_10_10
 G  LOTMIN_11_10
 L  LOTMAX_11_10
 E  CBAL_11_10
 E  CUT_lpg_10
 E  CUTS_lpg_10
 E  CUT_nap_10
 E  CUTS_nap_10
 E  CUT_ker_10
 E  CUTS_ker_10
 E  CUT_gso_10
 E  CUTS_gso_10
 E  CUT_vgo_10
 E  CUTS_vgo_10
 E  CUT_res_10
 E  CUTS_res_10
 G  FCCMIN_10
 L  FCCMAX_10
 E  VGO_10
 E  NAP_10
 E  KER_10
 E  GSO_10
 E  RES_10
 E  LPGP_10
 E  GAS_10
 G  GASOCT_10
 E  JET_10
 E  DSL_10
 E  FO_10
 L  DSLS_10
 L  JETS_10
 L  SULF_10
 E  PBAL_lpg_10
 E  PBAL_gas_10
 E  PBAL_jet_10
 E  PBAL_dsl_10
 E  PBAL_fo_10
 G  LOTMIN_0_11
 L  LOTMAX_0_11
 E  CBAL_0_11
 L  CDU_11
 G  LOTMIN_1_11
 L  LOTMAX_1_11
 E  CBAL_1_11
 G  LOTMIN_2_11
 L  LOTMAX_2_11
 E  CBAL_2_11
 G  LOTMIN_3_11
 L  LOTMAX_3_11
 E  CBAL_3_11
 G  LOTMIN_4_11
 L  LOTMAX_4_11
 E  CBAL_4_11
 G  LOTMIN_5_11
 L  LOTMAX_5_11
 E  CBAL_5_11
 G  LOTMIN_6_11
 L  LOTMAX_6_11
 E  CBAL_6_11
 G  LOTMIN_7_11
 L  LOTMAX_7_11
 E  CBAL_7_11
 G  LOTMIN_8_11
 L  LOTMAX_8_11
 E  CBAL_8_11
 G  LOTMIN_9_11
 L  LOTMAX_9_11
 E  CBAL_9_11
 G  LOTMIN_10_11
 L  LOTMAX_10_11
 E  CBAL_10_11
 G  LOTMIN_11_11
 L  LOTMAX_11_11
 E  CBAL_11_11
 E  CUT_lpg_11
 E  CUTS_lpg_11
 E  CUT_nap_11
 E  CUTS_nap_11
 E  CUT_ker_11
 E  CUTS_ker_11
 E  CUT_gso_11
 E  CUTS_gso_11
 E  CUT_vgo_11
 E  CUTS_vgo_11
 E  CUT_res_11
 E  CUTS_res_11
 G  FCCMIN_11
 L  FCCMAX_11
 E  VGO_11
 E  NAP_11
 E  KER_11
 E  GSO_11
 E  RES_11
 E  LPGP_11
 E  GAS_11
 G  GASOCT_11
 E  JET_11
 E  DSL_11
 E  FO_11
 L  DSLS_11
 L  JETS_11
 L  SULF_11
 E  PBAL_lpg_11
 E  PBAL_gas_11
 E  PBAL_jet_11
 E  PBAL_dsl_11
 E  PBAL_fo_11
COLUMNS
    BUY_0_0  MARGIN  62.43723806
    BUY_0_0  LOTMIN_0_0  1
    BUY_0_0  LOTMAX_0_0  1
    BUY_0_0  CBAL_0_0  -1
    MARKER  'MARKER'  'INTORG'
    CARGO_0_0  MARGIN  1233.617344
    CARGO_0_0  LOTMIN_0_0  -150
    CARGO_0_0  LOTMAX_0_0  -600
    MARKER  'MARKER'  'INTEND'
    CINV_0_0  MARGIN  0.4
    CINV_0_0  CBAL_0_0  1
    CINV_0_0  CBAL_0_1  -1
    FEED_0_0  CBAL_0_0  1
    FEED_0_0  CDU_0  1
    FEED_0_0  MARGIN  2
    FEED_0_0  CUT_lpg_0  -0.01403092732
    FEED_0_0  CUT_nap_0  -0.1201546366
    FEED_0_0  CUTS_nap_0  -0.01536512163
    FEED_0_0  CUT_ker_0  -0.1080618546
    FEED_0_0  CUTS_ker_0  -0.04145616649
    FEED_0_0  CUT_gso_0  -0.1880618546
    FEED_0_0  CUTS_gso_0  -0.2885874421
    FEED_0_0  CUT_vgo_0  -0.2432817878
    FEED_0_0  CUTS_vgo_0  -0.7466486916
    FEED_0_0  CUT_res_0  -0.326408939
    FEED_0_0  CUTS_res_0  -2.08702435
    BUY_1_0  MARGIN  62.98571642
    BUY_1_0  LOTMIN_1_0  1
    BUY_1_0  LOTMAX_1_0  1
    BUY_1_0  CBAL_1_0  -1
    MARKER  'MARKER'  'INTORG'
    CARGO_1_0  MARGIN  852.0029712
    CARGO_1_0  LOTMIN_1_0  -150
    CARGO_1_0  LOTMAX_1_0  -600
    MARKER  'MARKER'  'INTEND'
    CINV_1_0  MARGIN  0.4
    CINV_1_0  CBAL_1_0  1
    CINV_1_0  CBAL_1_1  -1
    FEED_1_0  CBAL_1_0  1
    FEED_1_0  CDU_0  1
    FEED_1_0  MARGIN  2
    FEED_1_0  CUT_lpg_0  -0.01686286664
    FEED_1_0  CUT_nap_0  -0.1343143332
    FEED_1_0  CUTS_nap_0  -0.01908126512
    FEED_1_0  CUT_ker_0  -0.1137257333
    FEED_1_0  CUTS_ker_0  -0.0484690833
    FEED_1_0  CUT_gso_0  -0.1937257333
    FEED_1_0  CUTS_gso_0  -0.330258014
    FEED_1_0  CUT_vgo_0  -0.2385618889
    FEED_1_0  CUTS_vgo_0  -0.8133867848
    FEED_1_0  CUT_res_0  -0.3028094447
    FEED_1_0  CUTS_res_0  -2.150919846
    BUY_2_0  MARGIN  66.0530987
    BUY_2_0  LOTMIN_2_0  1
    BUY_2_0  LOTMAX_2_0  1
    BUY_2_0  CBAL_2_0  -1
    MARKER  'MARKER'  'INTORG'
    CARGO_2_0  MARGIN  836.532499
    CARGO_2_0  LOTMIN_2_0  -150
    CARGO_2_0  LOTMAX_2_0  -600
    MARKER  'MARKER'  'INTEND'
    CINV_2_0  MARGIN  0.4
    CINV_2_0  CBAL_2_0  1
    CINV_2_0  CBAL_2_1  -1
    FEED_2_0  CBAL_2_0  1
    FEED_2_0  CDU_0  1
    FEED_2_0  MARGIN  2
    FEED_2_0  CUT_lpg_0  -0.01656343112
    FEED_2_0  CUT_nap_0  -0.1328171556
    FEED_2_0  CUTS_nap_0  -0.009515353406
    FEED_2_0  CUT_ker_0  -0.1131268622
    FEED_2_0  CUTS_ker_0  -0.02431407454
    FEED_2_0  CUT_gso_0  -0.1931268622
    FEED_2_0  CUTS_gso_0  -0.1660331006
    FEED_2_0  CUT_vgo_0  -0.2390609481
    FEED_2_0  CUTS_vgo_0  -0.41104619
    FEED_2_0  CUT_res_0  -0.3053047407
    FEED_2_0  CUTS_res_0  -1.093639783
    BUY_3_0  MARGIN  70.99835779
    BUY_3_0  LOTMIN_3_0  1
    BUY_3_0  LOTMAX_3_0  1
    BUY_3_0  CBAL_3_0  -1
    MARKER  'MARKER'  'INTORG'
    CARGO_3_0  MARGIN  1798.88703
    CARGO_3_0  LOTMIN_3_0  -150
    CARGO_3_0  LOTMAX_3_0  -600
    MARKER  'MARKER'  'INTEND'
    CINV_3_0  MARGIN  0.4
    CINV_3_0  CBAL_3_0  1
    CINV_3_0  CBAL_3_1  -1
    FEED_3_0  CBAL_3_0  1
    FEED_3_0  CDU_0  1
    FEED_3_0  MARGIN  2
    FEED_3_0  CUT_lpg_0  -0.0349010708
    FEED_3_0  CUT_nap_0  -0.224505354
    FEED_3_0  CUTS_nap_0  -0.0229431691
    FEED_3_0  CUT_ker_0  -0.1498021416
    FEED_3_0  CUTS_ker_0  -0.0459267782
    FEED_3_0  CUT_gso_0  -0.2298021416
    FEED_3_0  CUTS_gso_0  -0.2818136476
    FEED_3_0  CUT_vgo_0  -0.2084982153
    FEED_3_0  CUTS_vgo_0  -0.5113759357
    FEED_3_0  CUT_res_0  -0.1524910767
    FEED_3_0  CUTS_res_0  -0.7791859962
    BUY_4_0  MARGIN  69.03818729
    BUY_4_0  LOTMIN_4_0  1
    BUY_4_0  LOTMAX_4_0  1
    BUY_4_0  CBAL_4_0  -1
    MARKER  'MARKER'  'INTORG'
    CARGO_4_0  MARGIN  2123.352446
    CARGO_4_0  LOTMIN_4_0  -150
    CARGO_4_0  LOTMAX_4_0  -600
    MARKER  'MARKER'  'INTEND'
    CINV_4_0  MARGIN  0.4
    CINV_4_0  CBAL_4_0  1
    CINV_4_0  CBAL_4_1  -1
    FEED_4_0  CBAL_4_0  1
    FEED_4_0  CDU_0  1
    FEED_4_0  MARGIN  2
    FEED_4_0  CUT_lpg_0  -0.02124109062
    FEED_4_0  CUT_nap_0  -0.1562054531
    FEED_4_0  CUTS_nap_0  -0.01072341631
    FEED_4_0  CUT_ker_0  -0.1224821812
    FEED_4_0  CUTS_ker_0  -0.02522499812
    FEED_4_0  CUT_gso_0  -0.2024821812
    FEED_4_0  CUTS_gso_0  -0.1668034514
    FEED_4_0  CUT_vgo_0  -0.231264849
    FEED_4_0  CUTS_vgo_0  -0.3810288367
    FEED_4_0  CUT_res_0  -0.2663242449
    FEED_4_0  CUTS_res_0  -0.9141504649
    BUY_5_0  MARGIN  74.02787439
    BUY_5_0  LOTMIN_5_0  1
    BUY_5_0  LOTMAX_5_0  1
    BUY_5_0  CBAL_5_0  -1
    MARKER  'MARKER'  'INTORG'
    CARGO_5_0  MARGIN  1194.699418
    CARGO_5_0  LOTMIN_5_0  -150
    CARGO_5_0  LOTMAX_5_0  -600
    MARKER  'MARKER'  'INTEND'
    CINV_5_0  MARGIN  0.4
    CINV_5_0  CBAL_5_0  1
    CINV_5_0  CBAL_5_1  -1
    FEED_5_0  CBAL_5_0  1
    FEED_5_0  CDU_0  1
    FEED_5_0  MARGIN  2
    FEED_5_0  CUT_lpg_0  -0.03311569419
    FEED_5_0  CUT_nap_0  -0.215578471
    FEED_5_0  CUTS_nap_0  -0.0179457285
    FEED_5_0  CUT_ker_0  -0.1462313884
    FEED_5_0  CUTS_ker_0  -0.0365188896
    FEED_5_0  CUT_gso_0  -0.2262313884
    FEED_5_0  CUTS_gso_0  -0.2259903072
    FEED_5_0  CUT_vgo_0  -0.211473843
    FEED_5_0  CUTS_vgo_0  -0.4224969762
    FEED_5_0  CUT_res_0  -0.167369215
    FEED_5_0  CUTS_res_0  -0.6966285823
    BUY_6_0  MARGIN  73.53844218
    BUY_6_0  LOTMIN_6_0  1
    BUY_6_0  LOTMAX_6_0  1
    BUY_6_0  CBAL_6_0  -1
    MARKER  'MARKER'  'INTORG'
    CARGO_6_0  MARGIN  1524.354155
    CARGO_6_0  LOTMIN_6_0  -150
    CARGO_6_0  LOTMAX_6_0  -600
    MARKER  'MARKER'  'INTEND'
    CINV_6_0  MARGIN  0.4
    CINV_6_0  CBAL_6_0  1
    CINV_6_0  CBAL_6_1  -1
    FEED_6_0  CBAL_6_0  1
    FEED_6_0  CDU_0  1
    FEED_6_0  MARGIN  2
    FEED_6_0  CUT_lpg_0  -0.03427419703
    FEED_6_0  CUT_nap_0  -0.2213709851
    FEED_6_0  CUTS_nap_0  -0.0177558017
    FEED_6_0  CUT_ker_0  -0.1485483941
    FEED_6_0  CUTS_ker_0  -0.03574446524
    FEED_6_0  CUT_gso_0  -0.2285483941
    FEED_6_0  CUTS_gso_0  -0.219977878
    FEED_6_0  CUT_vgo_0  -0.209543005
    FEED_6_0  CUTS_vgo_0  -0.4033703739
    FEED_6_0  CUT_res_0  -0.1577150248
    FEED_6_0  CUTS_res_0  -0.6325031042
    BUY_7_0  MARGIN  65.98112648
    BUY_7_0  LOTMIN_7_0  1
    BUY_7_0  LOTMAX_7_0  1
    BUY_7_0  CBAL_7_0  -1
    MARKER  'MARKER'  'INTORG'
    CARGO_7_0  MARGIN  1793.58348
    CARGO_7_0  LOTMIN_7_0  -150
    CARGO_7_0  LOTMAX_7_0  -600
    MARKER  'MARKER'  'INTEND'
    CINV_7_0  MARGIN  0.4
    CINV_7_0  CBAL_7_0  1
    CINV_7_0  CBAL_7_1  -1
    FEED_7_0  CBAL_7_0  1
    FEED_7_0  CDU_0  1
    FEED_7_0  MARGIN  2
    FEED_7_0  CUT_lpg_0  -0.01083924952
    FEED_7_0  CUT_nap_0  -0.1041962476
    FEED_7_0  CUTS_nap_0  -0.003989958728
    FEED_7_0  CUT_ker_0  -0.101678499
    FEED_7_0  CUTS_ker_0  -0.01168064179
    FEED_7_0  CUT_gso_0  -0.181678499
    FEED_7_0  CUTS_gso_0  -0.08348358752
    FEED_7_0  CUT_vgo_0  -0.2486012508
    FEED_7_0  CUTS_vgo_0  -0.228470891
    FEED_7_0  CUT_res_0  -0.353006254
    FEED_7_0  CUTS_res_0  -0.6758786504
    BUY_8_0  MARGIN  63.04385081
    BUY_8_0  LOTMIN_8_0  1
    BUY_8_0  LOTMAX_8_0  1
    BUY_8_0  CBAL_8_0  -1
    MARKER  'MARKER'  'INTORG'
    CARGO_8_0  MARGIN  918.1761435
    CARGO_8_0  LOTMIN_8_0  -150
    CARGO_8_0  LOTMAX_8_0  -600
    MARKER  'MARKER'  'INTEND'
    CINV_8_0  MARGIN  0.4
    CINV_8_0  CBAL_8_0  1
    CINV_8_0  CBAL_8_1  -1
    FEED_8_0  CBAL_8_0  1
    FEED_8_0  CDU_0  1
    FEED_8_0  MARGIN  2
    FEED_8_0  CUT_lpg_0  -0.01328465882
    FEED_8_0  CUT_nap_0  -0.1164232941
    FEED_8_0  CUTS_nap_0  -0.01112963641
    FEED_8_0  CUT_ker_0  -0.1065693176
    FEED_8_0  CUTS_ker_0  -0.03056289808
    FEED_8_0  CUT_gso_0  -0.1865693176
    FEED_8_0  CUTS_gso_0  -0.2140240424
    FEED_8_0  CUT_vgo_0  -0.2445255686
    FEED_8_0  CUTS_vgo_0  -0.5610177637
    FEED_8_0  CUT_res_0  -0.3326278432
    FEED_8_0  CUTS_res_0  -1.589899591
    BUY_9_0  MARGIN  60.50770963
    BUY_9_0  LOTMIN_9_0  1
    BUY_9_0  LOTMAX_9_0  1
    BUY_9_0  CBAL_9_0  -1
    MARKER  'MARKER'  'INTORG'
    CARGO_9_0  MARGIN  1155.454687
    CARGO_9_0  LOTMIN_9_0  -150
    CARGO_9_0  LOTMAX_9_0  -600
    MARKER  'MARKER'  'INTEND'
    CINV_9_0  MARGIN  0.4
    CINV_9_0  CBAL_9_0  1
    CINV_9_0  CBAL_9_1  -1
    FEED_9_0  CBAL_9_0  1
    FEED_9_0  CDU_0  1
    FEED_9_0  MARGIN  2
    FEED_9_0  CUT_lpg_0  -0.01326285077
    FEED_9_0  CUT_nap_0  -0.1163142539
    FEED_9_0  CUTS_nap_0  -0.0157575203
    FEED_9_0  CUT_ker_0  -0.1065257015
    FEED_9_0  CUTS_ker_0  -0.04329428722
    FEED_9_0  CUT_gso_0  -0.1865257015
    FEED_9_0  CUTS_gso_0  -0.3032318841
    FEED_9_0  CUT_vgo_0  -0.2445619154
    FEED_9_0  CUTS_vgo_0  -0.7951608789
    FEED_9_0  CUT_res_0  -0.3328095769
    FEED_9_0  CUTS_res_0  -2.254346948
    BUY_10_0  MARGIN  72.07395902
    BUY_10_0  LOTMIN_10_0  1
    BUY_10_0  LOTMAX_10_0  1
    BUY_10_0  CBAL_10_0  -1
    MARKER  'MARKER'  'INTORG'
    CARGO_10_0  MARGIN  1902.460911
    CARGO_10_0  LOTMIN_10_0  -150
    CARGO_10_0  LOTMAX_10_0  -600
    MARKER  'MARKER'  'INTEND'
    CINV_10_0  MARGIN  0.4
    CINV_10_0  CBAL_10_0  1
    CINV_10_0  CBAL_10_1  -1
    FEED_10_0  CBAL_10_0  1
    FEED_10_0  CDU_0  1
    FEED_10_0  MARGIN  2
    FEED_10_0  CUT_lpg_0  -0.03393432573
    FEED_10_0  CUT_nap_0  -0.2196716287
    FEED_10_0  CUTS_nap_0  -0.01755328544
    FEED_10_0  CUT_ker_0  -0.1478686515
    FEED_10_0  CUTS_ker_0  -0.03544718993
    FEED_10_0  CUT_gso_0  -0.2278686515
    FEED_10_0  CUTS_gso_0  -0.2184994125
    FEED_10_0  CUT_vgo_0  -0.2101094571
    FEED_10_0  CUTS_vgo_0  -0.4029408402
    FEED_10_0  CUT_res_0  -0.1605472856
    FEED_10_0  CUTS_res_0  -0.6414420352
    BUY_11_0  MARGIN  72.70793959
    BUY_11_0  LOTMIN_11_0  1
    BUY_11_0  LOTMAX_11_0  1
    BUY_11_0  CBAL_11_0  -1
    MARKER  'MARKER'  'INTORG'
    CARGO_11_0  MARGIN  814.4164462
    CARGO_11_0  LOTMIN_11_0  -150
    CARGO_11_0  LOTMAX_11_0  -600
    MARKER  'MARKER'  'INTEND'
    CINV_11_0  MARGIN  0.4
    CINV_11_0  CBAL_11_0  1
    CINV_11_0  CBAL_11_1  -1
    FEED_11_0  CBAL_11_0  1
    FEED_11_0  CDU_0  1
    FEED_11_0  MARGIN  2
    FEED_11_0  CUT_lpg_0  -0.03231526356
    FEED_11_0  CUT_nap_0  -0.2115763178
    FEED_11_0  CUTS_nap_0  -0.01382544985
    FEED_11_0  CUT_ker_0  -0.1446305271
    FEED_11_0  CUTS_ker_0  -0.02835263588
    FEED_11_0  CUT_gso_0  -0.2246305271
    FEED_11_0  CUTS_gso_0  -0.1761417225
    FEED_11_0  CUT_vgo_0  -0.2128078941
    FEED_11_0  CUTS_vgo_0  -0.3337422523
    FEED_11_0  CUT_res_0  -0.1740394703
    FEED_11_0  CUTS_res_0  -0.5686302689
    SR_lpg_0  CUT_lpg_0  1
    SR_lpg_0  LPGP_0  1
    SRS_lpg_0  CUTS_lpg_0  1
    SRS_lpg_0  SULF_0  1
    SR_nap_0  CUT_nap_0  1
    SR_nap_0  NAP_0  1
    SRS_nap_0  CUTS_nap_0  1
    SRS_nap_0  SULF_0  1
    SR_ker_0  CUT_ker_0  1
    SR_ker_0  KER_0  1
    SRS_ker_0  CUTS_ker_0  1
    SRS_ker_0  SULF_0  1
    SR_gso_0  CUT_gso_0  1
    SR_gso_0  GSO_0  1
    SRS_gso_0  CUTS_gso_0  1
    SRS_gso_0  SULF_0  1
    SR_vgo_0  CUT_vgo_0  1
    SR_vgo_0  VGO_0  1
    SRS_vgo_0  CUTS_vgo_0  1
    SRS_vgo_0  SULF_0  1
    SR_res_0  CUT_res_0  1
    SR_res_0  RES_0  1
    SRS_res_0  CUTS_res_0  1
    SRS_res_0  SULF_0  1
    MARKER  'MARKER'  'INTORG'
    FCCON_0  MARGIN  3000
    FCCON_0  FCCMIN_0  -180
    FCCON_0  FCCMAX_0  -450
    MARKER  'MARKER'  'INTEND'
    FCCFEED_0  MARGIN  4
    FCCFEED_0  FCCMIN_0  1
    FCCFEED_0  FCCMAX_0  1
    FCCFEED_0  VGO_0  -1
    FCCFEED_0  GAS_0  0.55
    FCCFEED_0  GASOCT_0  2.75
    FCCFEED_0  DSL_0  0.3
    FCCFEED_0  FO_0  0.1
    FCCFEED_0  DSLS_0  0.24
    VGO2FO_0  VGO_0  -1
    VGO2FO_0  FO_0  1
    NAP2GAS_0  NAP_0  -1
    NAP2GAS_0  GAS_0  1
    NAP2GAS_0  GASOCT_0  -19
    NAP2FO_0  NAP_0  -1
    NAP2FO_0  FO_0  1
    KER2JET_0  KER_0  -1
    KER2JET_0  JET_0  1
    KER2JET_0  JETS_0  -0.05
    KER2DSL_0  KER_0  -1
    KER2DSL_0  DSL_0  1
    KER2DSL_0  DSLS_0  0.9
    GSO2DSL_0  GSO_0  -1
    GSO2DSL_0  DSL_0  1
    GSO2DSL_0  DSLS_0  1.4
    GSO2FO_0  GSO_0  -1
    GSO2FO_0  FO_0  1
    RES2FO_0  RES_0  -1
    RES2FO_0  FO_0  1
    PROD_lpg_0  LPGP_0  -1
    PROD_lpg_0  PBAL_lpg_0  1
    PROD_gas_0  GAS_0  -1
    PROD_gas_0  PBAL_gas_0  1
    PROD_jet_0  JET_0  -1
    PROD_jet_0  PBAL_jet_0  1
    PROD_dsl_0  DSL_0  -1
    PROD_dsl_0  DSLS_0  -1
    PROD_dsl_0  PBAL_dsl_0  1
    PROD_fo_0  FO_0  -1
    PROD_fo_0  PBAL_fo_0  1
    SELL_lpg_0  MARGIN  -60
    SELL_lpg_0  PBAL_lpg_0  -1
    PINV_lpg_0  MARGIN  0.8
    PINV_lpg_0  PBAL_lpg_0  -1
    PINV_lpg_0  PBAL_lpg_1  1
    SELL_gas_0  MARGIN  -105
    SELL_gas_0  PBAL_gas_0  -1
    PINV_gas_0  MARGIN  0.8
    PINV_gas_0  PBAL_gas_0  -1
    PINV_gas_0  PBAL_gas_1  1
    SELL_jet_0  MARGIN  -100
    SELL_jet_0  PBAL_jet_0  -1
    PINV_jet_0  MARGIN  0.8
    PINV_jet_0  PBAL_jet_0  -1
    PINV_jet_0  PBAL_jet_1  1
    SELL_dsl_0  MARGIN  -98
    SELL_dsl_0  PBAL_dsl_0  -1
    PINV_dsl_0  MARGIN  0.8
    PINV_dsl_0  PBAL_dsl_0  -1
    PINV_dsl_0  PBAL_dsl_1  1
    SELL_fo_0  MARGIN  -55
    SELL_fo_0  PBAL_fo_0  -1
    PINV_fo_0  MARGIN  0.8
    PINV_fo_0  PBAL_fo_0  -1
    PINV_fo_0  PBAL_fo_1  1
    BUY_0_1  MARGIN  62.43723806
    BUY_0_1  LOTMIN_0_1  1
    BUY_0_1  LOTMAX_0_1  1
    BUY_0_1  CBAL_0_1  -1
    MARKER  'MARKER'  'INTORG'
    CARGO_0_1  MARGIN  1233.617344
    CARGO_0_1  LOTMIN_0_1  -150
    CARGO_0_1  LOTMAX_0_1  -600
    MARKER  'MARKER'  'INTEND'
    CINV_0_1  MARGIN  0.4
    CINV_0_1  CBAL_0_1  1
    CINV_0_1  CBAL_0_2  -1
    FEED_0_1  CBAL_0_1  1
    FEED_0_1  CDU_1  1
    FEED_0_1  MARGIN  2
    FEED_0_1  CUT_lpg_1  -0.01403092732
    FEED_0_1  CUT_nap_1  -0.1201546366
    FEED_0_1  CUTS_nap_1  -0.01536512163
    FEED_0_1  CUT_ker_1  -0.1080618546
    FEED_0_1  CUTS_ker_1  -0.04145616649
    FEED_0_1  CUT_gso_1  -0.1880618546
    FEED_0_1  CUTS_gso_1  -0.2885874421
    FEED_0_1  CUT_vgo_1  -0.2432817878
    FEED_0_1  CUTS_vgo_1  -0.7466486916
    FEED_0_1  CUT_res_1  -0.326408939
    FEED_0_1  CUTS_res_1  -2.08702435
    BUY_1_1  MARGIN  62.98571642
    BUY_1_1  LOTMIN_1_1  1
    BUY_1_1  LOTMAX_1_1  1
    BUY_1_1  CBAL_1_1  -1
    MARKER  'MARKER'  'INTORG'
    CARGO_1_1  MARGIN  852.0029712
    CARGO_1_1  LOTMIN_1_1  -150
    CARGO_1_1  LOTMAX_1_1  -600
    MARKER  'MARKER'  'INTEND'
    CINV_1_1  MARGIN  0.4
    CINV_1_1  CBAL_1_1  1
    CINV_1_1  CBAL_1_2  -1
    FEED_1_1  CBAL_1_1  1
    FEED_1_1  CDU_1  1
    FEED_1_1  MARGIN  2
    FEED_1_1  CUT_lpg_1  -0.01686286664
    FEED_1_1  CUT_nap_1  -0.1343143332
    FEED_1_1  CUTS_nap_1  -0.01908126512
    FEED_1_1  CUT_ker_1  -0.1137257333
    FEED_1_1  CUTS_ker_1  -0.0484690833
    FEED_1_1  CUT_gso_1  -0.1937257333
    FEED_1_1  CUTS_gso_1  -0.330258014
    FEED_1_1  CUT_vgo_1  -0.2385618889
    FEED_1_1  CUTS_vgo_1  -0.8133867848
    FEED_1_1  CUT_res_1  -0.3028094447
    FEED_1_1  CUTS_res_1  -2.150919846
    BUY_2_1  MARGIN  66.0530987
    BUY_2_1  LOTMIN_2_1  1
    BUY_2_1  LOTMAX_2_1  1
    BUY_2_1  CBAL_2_1  -1
    MARKER  'MARKER'  'INTORG'
    CARGO_2_1  MARGIN  836.532499
    CARGO_2_1  LOTMIN_2_1  -150
    CARGO_2_1  LOTMAX_2_1  -600
    MARKER  'MARKER'  'INTEND'
    CINV_2_1  MARGIN  0.4
    CINV_2_1  CBAL_2_1  1
    CINV_2_1  CBAL_2_2  -1
    FEED_2_1  CBAL_2_1  1
    FEED_2_1  CDU_1  1
    FEED_2_1  MARGIN  2
    FEED_2_1  CUT_lpg_1  -0.01656343112
    FEED_2_1  CUT_nap_1  -0.1328171556
    FEED_2_1  CUTS_nap_1  -0.009515353406
    FEED_2_1  CUT_ker_1  -0.1131268622
    FEED_2_1  CUTS_ker_1  -0.02431407454
    FEED_2_1  CUT_gso_1  -0.1931268622
    FEED_2_1  CUTS_gso_1  -0.1660331006
    FEED_2_1  CUT_vgo_1  -0.2390609481
    FEED_2_1  CUTS_vgo_1  -0.41104619
    FEED_2_1  CUT_res_1  -0.3053047407
    FEED_2_1  CUTS_res_1  -1.093639783
    BUY_3_1  MARGIN  70.99835779
    BUY_3_1  LOTMIN_3_1  1
    BUY_3_1  LOTMAX_3_1  1
    BUY_3_1  CBAL_3_1  -1
    MARKER  'MARKER'  'INTORG'
    CARGO_3_1  MARGIN  1798.88703
    CARGO_3_1  LOTMIN_3_1  -150
    CARGO_3_1  LOTMAX_3_1  -600
    MARKER  'MARKER'  'INTEND'
    CINV_3_1  MARGIN  0.4
    CINV_3_1  CBAL_3_1  1
    CINV_3_1  CBAL_3_2  -1
    FEED_3_1  CBAL_3_1  1
    FEED_3_1  CDU_1  1
    FEED_3_1  MARGIN  2
    FEED_3_1  CUT_lpg_1  -0.0349010708
    FEED_3_1  CUT_nap_1  -0.224505354
    FEED_3_1  CUTS_nap_1  -0.0229431691
    FEED_3_1  CUT_ker_1  -0.1498021416
    FEED_3_1  CUTS_ker_1  -0.0459267782
    FEED_3_1  CUT_gso_1  -0.2298021416
    FEED_3_1  CUTS_gso_1  -0.2818136476
    FEED_3_1  CUT_vgo_1  -0.2084982153
    FEED_3_1  CUTS_vgo_1  -0.5113759357
    FEED_3_1  CUT_res_1  -0.1524910767
    FEED_3_1  CUTS_res_1  -0.7791859962
    BUY_4_1  MARGIN  69.03818729
    BUY_4_1  LOTMIN_4_1  1
    BUY_4_1  LOTMAX_4_1  1
    BUY_4_1  CBAL_4_1  -1
    MARKER  'MARKER'  'INTORG'
    CARGO_4_1  MARGIN  2123.352446
    CARGO_4_1  LOTMIN_4_1  -150
    CARGO_4_1  LOTMAX_4_1  -600
    MARKER  'MARKER'  'INTEND'
    CINV_4_1  MARGIN  0.4
    CINV_4_1  CBAL_4_1  1
    CINV_4_1  CBAL_4_2  -1
    FEED_4_1  CBAL_4_1  1
    FEED_4_1  CDU_1  1
    FEED_4_1  MARGIN  2
    FEED_4_1  CUT_lpg_1  -0.02124109062
    FEED_4_1  CUT_nap_1  -0.1562054531
    FEED_4_1  CUTS_nap_1  -0.01072341631
    FEED_4_1  CUT_ker_1  -0.1224821812
    FEED_4_1  CUTS_ker_1  -0.02522499812
    FEED_4_1  CUT_gso_1  -0.2024821812
    FEED_4_1  CUTS_gso_1  -0.1668034514
    FEED_4_1  CUT_vgo_1  -0.231264849
    FEED_4_1  CUTS_vgo_1  -0.3810288367
    FEED_4_1  CUT_res_1  -0.2663242449
    FEED_4_1  CUTS_res_1  -0.9141504649
    BUY_5_1  MARGIN  74.02787439
    BUY_5_1  LOTMIN_5_1  1
    BUY_5_1  LOTMAX_5_1  1
    BUY_5_1  CBAL_5_1  -1
    MARKER  'MARKER'  'INTORG'
    CARGO_5_1  MARGIN  1194.699418
    CARGO_5_1  LOTMIN_5_1  -150
    CARGO_5_1  LOTMAX_5_1  -600
    MARKER  'MARKER'  'INTEND'
    CINV_5_1  MARGIN  0.4
    CINV_5_1  CBAL_5_1  1
    CINV_5_1  CBAL_5_2  -1
    FEED_5_1  CBAL_5_1  1
    FEED_5_1  CDU_1  1
    FEED_5_1  MARGIN  2
    FEED_5_1  CUT_lpg_1  -0.03311569419
    FEED_5_1  CUT_nap_1  -0.215578471
    FEED_5_1  CUTS_nap_1  -0.0179457285
    FEED_5_1  CUT_ker_1  -0.1462313884
    FEED_5_1  CUTS_ker_1  -0.0365188896
    FEED_5_1  CUT_gso_1  -0.2262313884
    FEED_5_1  CUTS_gso_1  -0.2259903072
    FEED_5_1  CUT_vgo_1  -0.211473843
    FEED_5_1  CUTS_vgo_1  -0.4224969762
    FEED_5_1  CUT_res_1  -0.167369215
    FEED_5_1  CUTS_res_1  -0.6966285823
    BUY_6_1  MARGIN  73.53844218
    BUY_6_1  LOTMIN_6_1  1
    BUY_6_1  LOTMAX_6_1  1
    BUY_6_1  CBAL_6_1  -1
    MARKER  'MARKER'  'INTORG'
    CARGO_6_1  MARGIN  1524.354155
    CARGO_6_1  LOTMIN_6_1  -150
    CARGO_6_1  LOTMAX_6_1  -600
    MARKER  'MARKER'  'INTEND'
    CINV_6_1  MARGIN  0.4
    CINV_6_1  CBAL_6_1  1
    CINV_6_1  CBAL_6_2  -1
    FEED_6_1  CBAL_6_1  1
    FEED_6_1  CDU_1  1
    FEED_6_1  MARGIN  2
    FEED_6_1  CUT_lpg_1  -0.03427419703
    FEED_6_1  CUT_nap_1  -0.2213709851
    FEED_6_1  CUTS_nap_1  -0.0177558017
    FEED_6_1  CUT_ker_1  -0.1485483941
    FEED_6_1  CUTS_ker_1  -0.03574446524
    FEED_6_1  CUT_gso_1  -0.2285483941
    FEED_6_1  CUTS_gso_1  -0.219977878
    FEED_6_1  CUT_vgo_1  -0.209543005
    FEED_6_1  CUTS_vgo_1  -0.4033703739
    FEED_6_1  CUT_res_1  -0.1577150248
    FEED_6_1  CUTS_res_1  -0.6325031042
    BUY_7_1  MARGIN  65.98112648
    BUY_7_1  LOTMIN_7_1  1
    BUY_7_1  LOTMAX_7_1  1
    BUY_7_1  CBAL_7_1  -1
    MARKER  'MARKER'  'INTORG'
    CARGO_7_1  MARGIN  1793.58348
    CARGO_7_1  LOTMIN_7_1  -150
    CARGO_7_1  LOTMAX_7_1  -600
    MARKER  'MARKER'  'INTEND'
    CINV_7_1  MARGIN  0.4
    CINV_7_1  CBAL_7_1  1
    CINV_7_1  CBAL_7_2  -1
    FEED_7_1  CBAL_7_1  1
    FEED_7_1  CDU_1  1
    FEED_7_1  MARGIN  2
    FEED_7_1  CUT_lpg_1  -0.01083924952
    FEED_7_1  CUT_nap_1  -0.1041962476
    FEED_7_1  CUTS_nap_1  -0.003989958728
    FEED_7_1  CUT_ker_1  -0.101678499
    FEED_7_1  CUTS_ker_1  -0.01168064179
    FEED_7_1  CUT_gso_1  -0.181678499
    FEED_7_1  CUTS_gso_1  -0.08348358752
    FEED_7_1  CUT_vgo_1  -0.2486012508
    FEED_7_1  CUTS_vgo_1  -0.228470891
    FEED_7_1  CUT_res_1  -0.353006254
    FEED_7_1  CUTS_res_1  -0.6758786504
    BUY_8_1  MARGIN  63.04385081
    BUY_8_1  LOTMIN_8_1  1
    BUY_8_1  LOTMAX_8_1  1
    BUY_8_1  CBAL_8_1  -1
    MARKER  'MARKER'  'INTORG'
    CARGO_8_1  MARGIN  918.1761435
    CARGO_8_1  LOTMIN_8_1  -150
    CARGO_8_1  LOTMAX_8_1  -600
    MARKER  'MARKER'  'INTEND'
    CINV_8_1  MARGIN  0.4
    CINV_8_1  CBAL_8_1  1
    CINV_8_1  CBAL_8_2  -1
    FEED_8_1  CBAL_8_1  1
    FEED_8_1  CDU_1  1
    FEED_8_1  MARGIN  2
    FEED_8_1  CUT_lpg_1  -0.01328465882
    FEED_8_1  CUT_nap_1  -0.1164232941
    FEED_8_1  CUTS_nap_1  -0.01112963641
    FEED_8_1  CUT_ker_1  -0.1065693176
    FEED_8_1  CUTS_ker_1  -0.03056289808
    FEED_8_1  CUT_gso_1  -0.1865693176
    FEED_8_1  CUTS_gso_1  -0.2140240424
    FEED_8_1  CUT_vgo_1  -0.2445255686
    FEED_8_1  CUTS_vgo_1  -0.5610177637
    FEED_8_1  CUT_res_1  -0.3326278432
    FEED_8_1  CUTS_res_1  -1.589899591
    BUY_9_1  MARGIN  60.50770963
    BUY_9_1  LOTMIN_9_1  1
    BUY_9_1  LOTMAX_9_1  1
    BUY_9_1  CBAL_9_1  -1
    MARKER  'MARKER'  'INTORG'
    CARGO_9_1  MARGIN  1155.454687
    CARGO_9_1  LOTMIN_9_1  -150
    CARGO_9_1  LOTMAX_9_1  -600
    MARKER  'MARKER'  'INTEND'
    CINV_9_1  MARGIN  0.4
    CINV_9_1  CBAL_9_1  1
    CINV_9_1  CBAL_9_2  -1
    FEED_9_1  CBAL_9_1  1
    FEED_9_1  CDU_1  1
    FEED_9_1  MARGIN  2
    FEED_9_1  CUT_lpg_1  -0.01326285077
    FEED_9_1  CUT_nap_1  -0.1163142539
    FEED_9_1  CUTS_nap_1  -0.0157575203
    FEED_9_1  CUT_ker_1  -0.1065257015
    FEED_9_1  CUTS_ker_1  -0.04329428722
    FEED_9_1  CUT_gso_1  -0.1865257015
    FEED_9_1  CUTS_gso_1  -0.3032318841
    FEED_9_1  CUT_vgo_1  -0.2445619154
    FEED_9_1  CUTS_vgo_1  -0.7951608789
    FEED_9_1  CUT_res_1  -0.3328095769
    FEED_9_1  CUTS_res_1  -2.254346948
    BUY_10_1  MARGIN  72.07395902
    BUY_10_1  LOTMIN_10_1  1
    BUY_10_1  LOTMAX_10_1  1
    BUY_10_1  CBAL_10_1  -1
    MARKER  'MARKER'  'INTORG'
    CARGO_10_1  MARGIN  1902.460911
    CARGO_10_1  LOTMIN_10_1  -150
    CARGO_10_1  LOTMAX_10_1  -600
    MARKER  'MARKER'  'INTEND'
    CINV_10_1  MARGIN  0.4
    CINV_10_1  CBAL_10_1  1
    CINV_10_1  CBAL_10_2  -1
    FEED_10_1  CBAL_10_1  1
    FEED_10_1  CDU_1  1
    FEED_10_1  MARGIN  2
    FEED_10_1  CUT_lpg_1  -0.03393432573
    FEED_10_1  CUT_nap_1  -0.2196716287
    FEED_10_1  CUTS_nap_1  -0.01755328544
    FEED_10_1  CUT_ker_1  -0.1478686515
    FEED_10_1  CUTS_ker_1  -0.03544718993
    FEED_10_1  CUT_gso_1  -0.2278686515
    FEED_10_1  CUTS_gso_1  -0.2184994125
    FEED_10_1  CUT_vgo_1  -0.2101094571
    FEED_10_1  CUTS_vgo_1  -0.4029408402
    FEED_10_1  CUT_res_1  -0.1605472856
    FEED_10_1  CUTS_res_1  -0.6414420352
    BUY_11_1  MARGIN  72.70793959
    BUY_11_1  LOTMIN_11_1  1
    BUY_11_1  LOTMAX_11_1  1
    BUY_11_1  CBAL_11_1  -1
    MARKER  'MARKER'  'INTORG'
    CARGO_11_1  MARGIN  814.4164462
    CARGO_11_1  LOTMIN_11_1  -150
    CARGO_11_1  LOTMAX_11_1  -600
    MARKER  'MARKER'  'INTEND'
    CINV_11_1  MARGIN  0.4
    CINV_11_1  CBAL_11_1  1
    CINV_11_1  CBAL_11_2  -1
    FEED_11_1  CBAL_11_1  1
    FEED_11_1  CDU_1  1
    FEED_11_1  MARGIN  2
    FEED_11_1  CUT_lpg_1  -0.03231526356
    FEED_11_1  CUT_nap_1  -0.2115763178
    FEED_11_1  CUTS_nap_1  -0.01382544985
    FEED_11_1  CUT_ker_1  -0.1446305271
    FEED_11_1  CUTS_ker_1  -0.02835263588
    FEED_11_1  CUT_gso_1  -0.2246305271
    FEED_11_1  CUTS_gso_1  -0.1761417225
    FEED_11_1  CUT_vgo_1  -0.2128078941
    FEED_11_1  CUTS_vgo_1  -0.3337422523
    FEED_11_1  CUT_res_1  -0.1740394703
    FEED_11_1  CUTS_res_1  -0.5686302689
    SR_lpg_1  CUT_lpg_1  1
    SR_lpg_1  LPGP_1  1
    SRS_lpg_1  CUTS_lpg_1  1
    SRS_lpg_1  SULF_1  1
    SR_nap_1  CUT_nap_1  1
    SR_nap_1  NAP_1  1
    SRS_nap_1  CUTS_nap_1  1
    SRS_nap_1  SULF_1  1
    SR_ker_1  CUT_ker_1  1
    SR_ker_1  KER_1  1
    SRS_ker_1  CUTS_ker_1  1
    SRS_ker_1  SULF_1  1
    SR_gso_1  CUT_gso_1  1
    SR_gso_1  GSO_1  1
    SRS_gso_1  CUTS_gso_1  1
    SRS_gso_1  SULF_1  1
    SR_vgo_1  CUT_vgo_1  1
    SR_vgo_1  VGO_1  1
    SRS_vgo_1  CUTS_vgo_1  1
    SRS_vgo_1  SULF_1  1
    SR_res_1  CUT_res_1  1
    SR_res_1  RES_1  1
    SRS_res_1  CUTS_res_1  1
    SRS_res_1  SULF_1  1
    MARKER  'MARKER'  'INTORG'
    FCCON_1  MARGIN  3000
    FCCON_1  FCCMIN_1  -180
    FCCON_1  FCCMAX_1  -450
    MARKER  'MARKER'  'INTEND'
    FCCFEED_1  MARGIN  4
    FCCFEED_1  FCCMIN_1  1
    FCCFEED_1  FCCMAX_1  1
    FCCFEED_1  VGO_1  -1
    FCCFEED_1  GAS_1  0.55
    FCCFEED_1  GASOCT_1  2.75
    FCCFEED_1  DSL_1  0.3
    FCCFEED_1  FO_1  0.1
    FCCFEED_1  DSLS_1  0.24
    VGO2FO_1  VGO_1  -1
    VGO2FO_1  FO_1  1
    NAP2GAS_1  NAP_1  -1
    NAP2GAS_1  GAS_1  1
    NAP2GAS_1  GASOCT_1  -19
    NAP2FO_1  NAP_1  -1
    NAP2FO_1  FO_1  1
    KER2JET_1  KER_1  -1
    KER2JET_1  JET_1  1
    KER2JET_1  JETS_1  -0.05
    KER2DSL_1  KER_1  -1
    KER2DSL_1  DSL_1  1
    KER2DSL_1  DSLS_1  0.9
    GSO2DSL_1  GSO_1  -1
    GSO2DSL_1  DSL_1  1
    GSO2DSL_1  DSLS_1  1.4
    GSO2FO_1  GSO_1  -1
    GSO2FO_1  FO_1  1
    RES2FO_1  RES_1  -1
    RES2FO_1  FO_1  1
    PROD_lpg_1  LPGP_1  -1
    PROD_lpg_1  PBAL_lpg_1  1
    PROD_gas_1  GAS_1  -1
    PROD_gas_1  PBAL_gas_1  1
    PROD_jet_1  JET_1  -1
    PROD_jet_1  PBAL_jet_1  1
    PROD_dsl_1  DSL_1  -1
    PROD_dsl_1  DSLS_1  -1
    PROD_dsl_1  PBAL_dsl_1  1
    PROD_fo_1  FO_1  -1
    PROD_fo_1  PBAL_fo_1  1
    SELL_lpg_1  MARGIN  -60
    SELL_lpg_1  PBAL_lpg_1  -1
    PINV_lpg_1  MARGIN  0.8
    PINV_lpg_1  PBAL_lpg_1  -1
    PINV_lpg_1  PBAL_lpg_2  1
    SELL_gas_1  MARGIN  -105
    SELL_gas_1  PBAL_gas_1  -1
    PINV_gas_1  MARGIN  0.8
    PINV_gas_1  PBAL_gas_1  -1
    PINV_gas_1  PBAL_gas_2  1
    SELL_jet_1  MARGIN  -100
    SELL_jet_1  PBAL_jet_1  -1
    PINV_jet_1  MARGIN  0.8
    PINV_jet_1  PBAL_jet_1  -1
    PINV_jet_1  PBAL_jet_2  1
    SELL_dsl_1  MARGIN  -98
    SELL_dsl_1  PBAL_dsl_1  -1
    PINV_dsl_1  MARGIN  0.8
    PINV_dsl_1  PBAL_dsl_1  -1
    PINV_dsl_1  PBAL_dsl_2  1
    SELL_fo_1  MARGIN  -55
    SELL_fo_1  PBAL_fo_1  -1
    PINV_fo_1  MARGIN  0.8
    PINV_fo_1  PBAL_fo_1  -1
    PINV_fo_1  PBAL_fo_2  1
    BUY_0_2  MARGIN  62.43723806
    BUY_0_2  LOTMIN_0_2  1
    BUY_0_2  LOTMAX_0_2  1
    BUY_0_2  CBAL_0_2  -1
    MARKER  'MARKER'  'INTORG'
    CARGO_0_2  MARGIN  1233.617344
    CARGO_0_2  LOTMIN_0_2  -150
    CARGO_0_2  LOTMAX_0_2  -600
    MARKER  'MARKER'  'INTEND'
    CINV_0_2  MARGIN  0.4
    CINV_0_2  CBAL_0_2  1
    CINV_0_2  CBAL_0_3  -1
    FEED_0_2  CBAL_0_2  1
    FEED_0_2  CDU_2  1
    FEED_0_2  MARGIN  2
    FEED_0_2  CUT_lpg_2  -0.01403092732
    FEED_0_2  CUT_nap_2  -0.1201546366
    FEED_0_2  CUTS_nap_2  -0.01536512163
    FEED_0_2  CUT_ker_2  -0.1080618546
    FEED_0_2  CUTS_ker_2  -0.04145616649
    FEED_0_2  CUT_gso_2  -0.1880618546
    FEED_0_2  CUTS_gso_2  -0.2885874421
    FEED_0_2  CUT_vgo_2  -0.2432817878
    FEED_0_2  CUTS_vgo_2  -0.7466486916
    FEED_0_2  CUT_res_2  -0.326408939
    FEED_0_2  CUTS_res_2  -2.08702435
    BUY_1_2  MARGIN  62.98571642
    BUY_1_2  LOTMIN_1_2  1
    BUY_1_2  LOTMAX_1_2  1
    BUY_1_2  CBAL_1_2  -1
    MARKER  'MARKER'  'INTORG'
    CARGO_1_2  MARGIN  852.0029712
    CARGO_1_2  LOTMIN_1_2  -150
    CARGO_1_2  LOTMAX_1_2  -600
    MARKER  'MARKER'  'INTEND'
    CINV_1_2  MARGIN  0.4
    CINV_1_2  CBAL_1_2  1
    CINV_1_2  CBAL_1_3  -1
    FEED_1_2  CBAL_1_2  1
    FEED_1_2  CDU_2  1
    FEED_1_2  MARGIN  2
    FEED_1_2  CUT_lpg_2  -0.01686286664
    FEED_1_2  CUT_nap_2  -0.1343143332
    FEED_1_2  CUTS_nap_2  -0.01908126512
    FEED_1_2  CUT_ker_2  -0.1137257333
    FEED_1_2  CUTS_ker_2  -0.0484690833
    FEED_1_2  CUT_gso_2  -0.1937257333
    FEED_1_2  CUTS_gso_2  -0.330258014
    FEED_1_2  CUT_vgo_2  -0.2385618889
    FEED_1_2  CUTS_vgo_2  -0.8133867848
    FEED_1_2  CUT_res_2  -0.3028094447
    FEED_1_2  CUTS_res_2  -2.150919846
    BUY_2_2  MARGIN  66.0530987
    BUY_2_2  LOTMIN_2_2  1
    BUY_2_2  LOTMAX_2_2  1
    BUY_2_2  CBAL_2_2  -1
    MARKER  'MARKER'  'INTORG'
    CARGO_2_2  MARGIN  836.532499
    CARGO_2_2  LOTMIN_2_2  -150
    CARGO_2_2  LOTMAX_2_2  -600
    MARKER  'MARKER'  'INTEND'
    CINV_2_2  MARGIN  0.4
    CINV_2_2  CBAL_2_2  1
    CINV_2_2  CBAL_2_3  -1
    FEED_2_2  CBAL_2_2  1
    FEED_2_2  CDU_2  1
    FEED_2_2  MARGIN  2
    FEED_2_2  CUT_lpg_2  -0.01656343112
    FEED_2_2  CUT_nap_2  -0.1328171556
    FEED_2_2  CUTS_nap_2  -0.009515353406
    FEED_2_2  CUT_ker_2  -0.1131268622
    FEED_2_2  CUTS_ker_2  -0.02431407454
    FEED_2_2  CUT_gso_2  -0.1931268622
    FEED_2_2  CUTS_gso_2  -0.1660331006
    FEED_2_2  CUT_vgo_2  -0.2390609481
    FEED_2_2  CUTS_vgo_2  -0.41104619
    FEED_2_2  CUT_res_2  -0.3053047407
    FEED_2_2  CUTS_res_2  -1.093639783
    BUY_3_2  MARGIN  70.99835779
    BUY_3_2  LOTMIN_3_2  1
    BUY_3_2  LOTMAX_3_2  1
    BUY_3_2  CBAL_3_2  -1
    MARKER  'MARKER'  'INTORG'
    CARGO_3_2  MARGIN  1798.88703
    CARGO_3_2  LOTMIN_3_2  -150
    CARGO_3_2  LOTMAX_3_2  -600
    MARKER  'MARKER'  'INTEND'
    CINV_3_2  MARGIN  0.4
    CINV_3_2  CBAL_3_2  1
    CINV_3_2  CBAL_3_3  -1
    FEED_3_2  CBAL_3_2  1
    FEED_3_2  CDU_2  1
    FEED_3_2  MARGIN  2
    FEED_3_2  CUT_lpg_2  -0.0349010708
    FEED_3_2  CUT_nap_2  -0.224505354
    FEED_3_2  CUTS_nap_2  -0.0229431691
    FEED_3_2  CUT_ker_2  -0.1498021416
    FEED_3_2  CUTS_ker_2  -0.0459267782
    FEED_3_2  CUT_gso_2  -0.2298021416
    FEED_3_2  CUTS_gso_2  -0.2818136476
    FEED_3_2  CUT_vgo_2  -0.2084982153
    FEED_3_2  CUTS_vgo_2  -0.5113759357
    FEED_3_2  CUT_res_2  -0.1524910767
    FEED_3_2  CUTS_res_2  -0.7791859962
    BUY_4_2  MARGIN  69.03818729
    BUY_4_2  LOTMIN_4_2  1
    BUY_4_2  LOTMAX_4_2  1
    BUY_4_2  CBAL_4_2  -1
    MARKER  'MARKER'  'INTORG'
    CARGO_4_2  MARGIN  2123.352446
    CARGO_4_2  LOTMIN_4_2  -150
    CARGO_4_2  LOTMAX_4_2  -600
    MARKER  'MARKER'  'INTEND'
    CINV_4_2  MARGIN  0.4
    CINV_4_2  CBAL_4_2  1
    CINV_4_2  CBAL_4_3  -1
    FEED_4_2  CBAL_4_2  1
    FEED_4_2  CDU_2  1
    FEED_4_2  MARGIN  2
    FEED_4_2  CUT_lpg_2  -0.02124109062
    FEED_4_2  CUT_nap_2  -0.1562054531
    FEED_4_2  CUTS_nap_2  -0.01072341631
    FEED_4_2  CUT_ker_2  -0.1224821812
    FEED_4_2  CUTS_ker_2  -0.02522499812
    FEED_4_2  CUT_gso_2  -0.2024821812
    FEED_4_2  CUTS_gso_2  -0.1668034514
    FEED_4_2  CUT_vgo_2  -0.231264849
    FEED_4_2  CUTS_vgo_2  -0.3810288367
    FEED_4_2  CUT_res_2  -0.2663242449
    FEED_4_2  CUTS_res_2  -0.9141504649
    BUY_5_2  MARGIN  74.02787439
    BUY_5_2  LOTMIN_5_2  1
    BUY_5_2  LOTMAX_5_2  1
    BUY_5_2  CBAL_5_2  -1
    MARKER  'MARKER'  'INTORG'
    CARGO_5_2  MARGIN  1194.699418
    CARGO_5_2  LOTMIN_5_2  -150
    CARGO_5_2  LOTMAX_5_2  -600
    MARKER  'MARKER'  'INTEND'
    CINV_5_2  MARGIN  0.4
    CINV_5_2  CBAL_5_2  1
    CINV_5_2  CBAL_5_3  -1
    FEED_5_2  CBAL_5_2  1
    FEED_5_2  CDU_2  1
    FEED_5_2  MARGIN  2
    FEED_5_2  CUT_lpg_2  -0.03311569419
    FEED_5_2  CUT_nap_2  -0.215578471
    FEED_5_2  CUTS_nap_2  -0.0179457285
    FEED_5_2  CUT_ker_2  -0.1462313884
    FEED_5_2  CUTS_ker_2  -0.0365188896
    FEED_5_2  CUT_gso_2  -0.2262313884
    FEED_5_2  CUTS_gso_2  -0.2259903072
    FEED_5_2  CUT_vgo_2  -0.211473843
    FEED_5_2  CUTS_vgo_2  -0.4224969762
    FEED_5_2  CUT_res_2  -0.167369215
    FEED_5_2  CUTS_res_2  -0.6966285823
    BUY_6_2  MARGIN  73.53844218
    BUY_6_2  LOTMIN_6_2  1
    BUY_6_2  LOTMAX_6_2  1
    BUY_6_2  CBAL_6_2  -1
    MARKER  'MARKER'  'INTORG'
    CARGO_6_2  MARGIN  1524.354155
    CARGO_6_2  LOTMIN_6_2  -150
    CARGO_6_2  LOTMAX_6_2  -600
    MARKER  'MARKER'  'INTEND'
    CINV_6_2  MARGIN  0.4
    CINV_6_2  CBAL_6_2  1
    CINV_6_2  CBAL_6_3  -1
    FEED_6_2  CBAL_6_2  1
    FEED_6_2  CDU_2  1
    FEED_6_2  MARGIN  2
    FEED_6_2  CUT_lpg_2  -0.03427419703
    FEED_6_2  CUT_nap_2  -0.2213709851
    FEED_6_2  CUTS_nap_2  -0.0177558017
    FEED_6_2  CUT_ker_2  -0.1485483941
    FEED_6_2  CUTS_ker_2  -0.03574446524
    FEED_6_2  CUT_gso_2  -0.2285483941
    FEED_6_2  CUTS_gso_2  -0.219977878
    FEED_6_2  CUT_vgo_2  -0.209543005
    FEED_6_2  CUTS_vgo_2  -0.4033703739
    FEED_6_2  CUT_res_2  -0.1577150248
    FEED_6_2  CUTS_res_2  -0.6325031042
    BUY_7_2  MARGIN  65.98112648
    BUY_7_2  LOTMIN_7_2  1
    BUY_7_2  LOTMAX_7_2  1
    BUY_7_2  CBAL_7_2  -1
    MARKER  'MARKER'  'INTORG'
    CARGO_7_2  MARGIN  1793.58348
    CARGO_7_2  LOTMIN_7_2  -150
    CARGO_7_2  LOTMAX_7_2  -600
    MARKER  'MARKER'  'INTEND'
    CINV_7_2  MARGIN  0.4
    CINV_7_2  CBAL_7_2  1
    CINV_7_2  CBAL_7_3  -1
    FEED_7_2  CBAL_7_2  1
    FEED_7_2  CDU_2  1
    FEED_7_2  MARGIN  2
    FEED_7_2  CUT_lpg_2  -0.01083924952
    FEED_7_2  CUT_nap_2  -0.1041962476
    FEED_7_2  CUTS_nap_2  -0.003989958728
    FEED_7_2  CUT_ker_2  -0.101678499
    FEED_7_2  CUTS_ker_2  -0.01168064179
    FEED_7_2  CUT_gso_2  -0.181678499
    FEED_7_2  CUTS_gso_2  -0.08348358752
    FEED_7_2  CUT_vgo_2  -0.2486012508
    FEED_7_2  CUTS_vgo_2  -0.228470891
    FEED_7_2  CUT_res_2  -0.353006254
    FEED_7_2  CUTS_res_2  -0.6758786504
    BUY_8_2  MARGIN  63.04385081
    BUY_8_2  LOTMIN_8_2  1
    BUY_8_2  LOTMAX_8_2  1
    BUY_8_2  CBAL_8_2  -1
    MARKER  'MARKER'  'INTORG'
    CARGO_8_2  MARGIN  918.1761435
    CARGO_8_2  LOTMIN_8_2  -150
    CARGO_8_2  LOTMAX_8_2  -600
    MARKER  'MARKER'  'INTEND'
    CINV_8_2  MARGIN  0.4
    CINV_8_2  CBAL_8_2  1
    CINV_8_2  CBAL_8_3  -1
    FEED_8_2  CBAL_8_2  1
    FEED_8_2  CDU_2  1
    FEED_8_2  MARGIN  2
    FEED_8_2  CUT_lpg_2  -0.01328465882
    FEED_8_2  CUT_nap_2  -0.1164232941
    FEED_8_2  CUTS_nap_2  -0.01112963641
    FEED_8_2  CUT_ker_2  -0.1065693176
    FEED_8_2  CUTS_ker_2  -0.03056289808
    FEED_8_2  CUT_gso_2  -0.1865693176
    FEED_8_2  CUTS_gso_2  -0.2140240424
    FEED_8_2  CUT_vgo_2  -0.2445255686
    FEED_8_2  CUTS_vgo_2  -0.5610177637
    FEED_8_2  CUT_res_2  -0.3326278432
    FEED_8_2  CUTS_res_2  -1.589899591
    BUY_9_2  MARGIN  60.50770963
    BUY_9_2  LOTMIN_9_2  1
    BUY_9_2  LOTMAX_9_2  1
    BUY_9_2  CBAL_9_2  -1
    MARKER  'MARKER'  'INTORG'
    CARGO_9_2  MARGIN  1155.454687
    CARGO_9_2  LOTMIN_9_2  -150
    CARGO_9_2  LOTMAX_9_2  -600
    MARKER  'MARKER'  'INTEND'
    CINV_9_2  MARGIN  0.4
    CINV_9_2  CBAL_9_2  1
    CINV_9_2  CBAL_9_3  -1
    FEED_9_2  CBAL_9_2  1
    FEED_9_2  CDU_2  1
    FEED_9_2  MARGIN  2
    FEED_9_2  CUT_lpg_2  -0.01326285077
    FEED_9_2  CUT_nap_2  -0.1163142539
    FEED_9_2  CUTS_nap_2  -0.0157575203
    FEED_9_2  CUT_ker_2  -0.1065257015
    FEED_9_2  CUTS_ker_2  -0.04329428722
    FEED_9_2  CUT_gso_2  -0.1865257015
    FEED_9_2  CUTS_gso_2  -0.3032318841
    FEED_9_2  CUT_vgo_2  -0.2445619154
    FEED_9_2  CUTS_vgo_2  -0.7951608789
    FEED_9_2  CUT_res_2  -0.3328095769
    FEED_9_2  CUTS_res_2  -2.254346948
    BUY_10_2  MARGIN  72.07395902
    BUY_10_2  LOTMIN_10_2  1
    BUY_10_2  LOTMAX_10_2  1
    BUY_10_2  CBAL_10_2  -1
    MARKER  'MARKER'  'INTORG'
    CARGO_10_2  MARGIN  1902.460911
    CARGO_10_2  LOTMIN_10_2  -150
    CARGO_10_2  LOTMAX_10_2  -600
    MARKER  'MARKER'  'INTEND'
    CINV_10_2  MARGIN  0.4
    CINV_10_2  CBAL_10_2  1
    CINV_10_2  CBAL_10_3  -1
    FEED_10_2  CBAL_10_2  1
    FEED_10_2  CDU_2  1
    FEED_10_2  MARGIN  2
    FEED_10_2  CUT_lpg_2  -0.03393432573
    FEED_10_2  CUT_nap_2  -0.2196716287
    FEED_10_2  CUTS_nap_2  -0.01755328544
    FEED_10_2  CUT_ker_2  -0.1478686515
    FEED_10_2  CUTS_ker_2  -0.03544718993
    FEED_10_2  CUT_gso_2  -0.2278686515
    FEED_10_2  CUTS_gso_2  -0.2184994125
    FEED_10_2  CUT_vgo_2  -0.2101094571
    FEED_10_2  CUTS_vgo_2  -0.4029408402
    FEED_10_2  CUT_res_2  -0.1605472856
    FEED_10_2  CUTS_res_2  -0.6414420352
    BUY_11_2  MARGIN  72.70793959
    BUY_11_2  LOTMIN_11_2  1
    BUY_11_2  LOTMAX_11_2  1
    BUY_11_2  CBAL_11_2  -1
    MARKER  'MARKER'  'INTORG'
    CARGO_11_2  MARGIN  814.4164462
    CARGO_11_2  LOTMIN_11_2  -150
    CARGO_11_2  LOTMAX_11_2  -600
    MARKER  'MARKER'  'INTEND'
    CINV_11_2  MARGIN  0.4
    CINV_11_2  CBAL_11_2  1
    CINV_11_2  CBAL_11_3  -1
    FEED_11_2  CBAL_11_2  1
    FEED_11_2  CDU_2  1
    FEED_11_2  MARGIN  2
    FEED_11_2  CUT_lpg_2  -0.03231526356
    FEED_11_2  CUT_nap_2  -0.2115763178
    FEED_11_2  CUTS_nap_2  -0.01382544985
    FEED_11_2  CUT_ker_2  -0.1446305271
    FEED_11_2  CUTS_ker_2  -0.02835263588
    FEED_11_2  CUT_gso_2  -0.2246305271
    FEED_11_2  CUTS_gso_2  -0.1761417225
    FEED_11_2  CUT_vgo_2  -0.2128078941
    FEED_11_2  CUTS_vgo_2  -0.3337422523
    FEED_11_2  CUT_res_2  -0.1740394703
    FEED_11_2  CUTS_res_2  -0.5686302689
    SR_lpg_2  CUT_lpg_2  1
    SR_lpg_2  LPGP_2  1
    SRS_lpg_2  CUTS_lpg_2  1
    SRS_lpg_2  SULF_2  1
    SR_nap_2  CUT_nap_2  1
    SR_nap_2  NAP_2  1
    SRS_nap_2  CUTS_nap_2  1
    SRS_nap_2  SULF_2  1
    SR_ker_2  CUT_ker_2  1
    SR_ker_2  KER_2  1
    SRS_ker_2  CUTS_ker_2  1
    SRS_ker_2  SULF_2  1
    SR_gso_2  CUT_gso_2  1
    SR_gso_2  GSO_2  1
    SRS_gso_2  CUTS_gso_2  1
    SRS_gso_2  SULF_2  1
    SR_vgo_2  CUT_vgo_2  1
    SR_vgo_2  VGO_2  1
    SRS_vgo_2  CUTS_vgo_2  1
    SRS_vgo_2  SULF_2  1
    SR_res_2  CUT_res_2  1
    SR_res_2  RES_2  1
    SRS_res_2  CUTS_res_2  1
    SRS_res_2  SULF_2  1
    MARKER  'MARKER'  'INTORG'
    FCCON_2  MARGIN  3000
    FCCON_2  FCCMIN_2  -180
    FCCON_2  FCCMAX_2  -450
    MARKER  'MARKER'  'INTEND'
    FCCFEED_2  MARGIN  4
    FCCFEED_2  FCCMIN_2  1
    FCCFEED_2  FCCMAX_2  1
    FCCFEED_2  VGO_2  -1
    FCCFEED_2  GAS_2  0.55
    FCCFEED_2  GASOCT_2  2.75
    FCCFEED_2  DSL_2  0.3
    FCCFEED_2  FO_2  0.1
    FCCFEED_2  DSLS_2  0.24
    VGO2FO_2  VGO_2  -1
    VGO2FO_2  FO_2  1
    NAP2GAS_2  NAP_2  -1
    NAP2GAS_2  GAS_2  1
    NAP2GAS_2  GASOCT_2  -19
    NAP2FO_2  NAP_2  -1
    NAP2FO_2  FO_2  1
    KER2JET_2  KER_2  -1
    KER2JET_2  JET_2  1
    KER2JET_2  JETS_2  -0.05
    KER2DSL_2  KER_2  -1
    KER2DSL_2  DSL_2  1
    KER2DSL_2  DSLS_2  0.9
    GSO2DSL_2  GSO_2  -1
    GSO2DSL_2  DSL_2  1
    GSO2DSL_2  DSLS_2  1.4
    GSO2FO_2  GSO_2  -1
    GSO2FO_2  FO_2  1
    RES2FO_2  RES_2  -1
    RES2FO_2  FO_2  1
    PROD_lpg_2  LPGP_2  -1
    PROD_lpg_2  PBAL_lpg_2  1
    PROD_gas_2  GAS_2  -1
    PROD_gas_2  PBAL_gas_2  1
    PROD_jet_2  JET_2  -1
    PROD_jet_2  PBAL_jet_2  1
    PROD_dsl_2  DSL_2  -1
    PROD_dsl_2  DSLS_2  -1
    PROD_dsl_2  PBAL_dsl_2  1
    PROD_fo_2  FO_2  -1
    PROD_fo_2  PBAL_fo_2  1
    SELL_lpg_2  MARGIN  -60
    SELL_lpg_2  PBAL_lpg_2  -1
    PINV_lpg_2  MARGIN  0.8
    PINV_lpg_2  PBAL_lpg_2  -1
    PINV_lpg_2  PBAL_lpg_3  1
    SELL_gas_2  MARGIN  -105
    SELL_gas_2  PBAL_gas_2  -1
    PINV_gas_2  MARGIN  0.8
    PINV_gas_2  PBAL_gas_2  -1
    PINV_gas_2  PBAL_gas_3  1
    SELL_jet_2  MARGIN  -100
    SELL_jet_2  PBAL_jet_2  -1
    PINV_jet_2  MARGIN  0.8
    PINV_jet_2  PBAL_jet_2  -1
    PINV_jet_2  PBAL_jet_3  1
    SELL_dsl_2  MARGIN  -98
    SELL_dsl_2  PBAL_dsl_2  -1
    PINV_dsl_2  MARGIN  0.8
    PINV_dsl_2  PBAL_dsl_2  -1
    PINV_dsl_2  PBAL_dsl_3  1
    SELL_fo_2  MARGIN  -55
    SELL_fo_2  PBAL_fo_2  -1
    PINV_fo_2  MARGIN  0.8
    PINV_fo_2  PBAL_fo_2  -1
    PINV_fo_2  PBAL_fo_3  1
    BUY_0_3  MARGIN  62.43723806
    BUY_0_3  LOTMIN_0_3  1
    BUY_0_3  LOTMAX_0_3  1
    BUY_0_3  CBAL_0_3  -1
    MARKER  'MARKER'  'INTORG'
    CARGO_0_3  MARGIN  1233.617344
    CARGO_0_3  LOTMIN_0_3  -150
    CARGO_0_3  LOTMAX_0_3  -600
    MARKER  'MARKER'  'INTEND'
    CINV_0_3  MARGIN  0.4
    CINV_0_3  CBAL_0_3  1
    CINV_0_3  CBAL_0_4  -1
    FEED_0_3  CBAL_0_3  1
    FEED_0_3  CDU_3  1
    FEED_0_3  MARGIN  2
    FEED_0_3  CUT_lpg_3  -0.01403092732
    FEED_0_3  CUT_nap_3  -0.1201546366
    FEED_0_3  CUTS_nap_3  -0.01536512163
    FEED_0_3  CUT_ker_3  -0.1080618546
    FEED_0_3  CUTS_ker_3  -0.04145616649
    FEED_0_3  CUT_gso_3  -0.1880618546
    FEED_0_3  CUTS_gso_3  -0.2885874421
    FEED_0_3  CUT_vgo_3  -0.2432817878
    FEED_0_3  CUTS_vgo_3  -0.7466486916
    FEED_0_3  CUT_res_3  -0.326408939
    FEED_0_3  CUTS_res_3  -2.08702435
    BUY_1_3  MARGIN  62.98571642
    BUY_1_3  LOTMIN_1_3  1
    BUY_1_3  LOTMAX_1_3  1
    BUY_1_3  CBAL_1_3  -1
    MARKER  'MARKER'  'INTORG'
    CARGO_1_3  MARGIN  852.0029712
    CARGO_1_3  LOTMIN_1_3  -150
    CARGO_1_3  LOTMAX_1_3  -600
    MARKER  'MARKER'  'INTEND'
    CINV_1_3  MARGIN  0.4
    CINV_1_3  CBAL_1_3  1
    CINV_1_3  CBAL_1_4  -1
    FEED_1_3  CBAL_1_3  1
    FEED_1_3  CDU_3  1
    FEED_1_3  MARGIN  2
    FEED_1_3  CUT_lpg_3  -0.01686286664
    FEED_1_3  CUT_nap_3  -0.1343143332
    FEED_1_3  CUTS_nap_3  -0.01908126512
    FEED_1_3  CUT_ker_3  -0.1137257333
    FEED_1_3  CUTS_ker_3  -0.0484690833
    FEED_1_3  CUT_gso_3  -0.1937257333
    FEED_1_3  CUTS_gso_3  -0.330258014
    FEED_1_3  CUT_vgo_3  -0.2385618889
    FEED_1_3  CUTS_vgo_3  -0.8133867848
    FEED_1_3  CUT_res_3  -0.3028094447
    FEED_1_3  CUTS_res_3  -2.150919846
    BUY_2_3  MARGIN  66.0530987
    BUY_2_3  LOTMIN_2_3  1
    BUY_2_3  LOTMAX_2_3  1
    BUY_2_3  CBAL_2_3  -1
    MARKER  'MARKER'  'INTORG'
    CARGO_2_3  MARGIN  836.532499
    CARGO_2_3  LOTMIN_2_3  -150
    CARGO_2_3  LOTMAX_2_3  -600
    MARKER  'MARKER'  'INTEND'
    CINV_2_3  MARGIN  0.4
    CINV_2_3  CBAL_2_3  1
    CINV_2_3  CBAL_2_4  -1
    FEED_2_3  CBAL_2_3  1
    FEED_2_3  CDU_3  1
    FEED_2_3  MARGIN  2
    FEED_2_3  CUT_lpg_3  -0.01656343112
    FEED_2_3  CUT_nap_3  -0.1328171556
    FEED_2_3  CUTS_nap_3  -0.009515353406
    FEED_2_3  CUT_ker_3  -0.1131268622
    FEED_2_3  CUTS_ker_3  -0.02431407454
    FEED_2_3  CUT_gso_3  -0.1931268622
    FEED_2_3  CUTS_gso_3  -0.1660331006
    FEED_2_3  CUT_vgo_3  -0.2390609481
    FEED_2_3  CUTS_vgo_3  -0.41104619
    FEED_2_3  CUT_res_3  -0.3053047407
    FEED_2_3  CUTS_res_3  -1.093639783
    BUY_3_3  MARGIN  70.99835779
    BUY_3_3  LOTMIN_3_3  1
    BUY_3_3  LOTMAX_3_3  1
    BUY_3_3  CBAL_3_3  -1
    MARKER  'MARKER'  'INTORG'
    CARGO_3_3  MARGIN  1798.88703
    CARGO_3_3  LOTMIN_3_3  -150
    CARGO_3_3  LOTMAX_3_3  -600
    MARKER  'MARKER'  'INTEND'
    CINV_3_3  MARGIN  0.4
    CINV_3_3  CBAL_3_3  1
    CINV_3_3  CBAL_3_4  -1
    FEED_3_3  CBAL_3_3  1
    FEED_3_3  CDU_3  1
    FEED_3_3  MARGIN  2
    FEED_3_3  CUT_lpg_3  -0.0349010708
    FEED_3_3  CUT_nap_3  -0.224505354
    FEED_3_3  CUTS_nap_3  -0.0229431691
    FEED_3_3  CUT_ker_3  -0.1498021416
    FEED_3_3  CUTS_ker_3  -0.0459267782
    FEED_3_3  CUT_gso_3  -0.2298021416
    FEED_3_3  CUTS_gso_3  -0.2818136476
    FEED_3_3  CUT_vgo_3  -0.2084982153
    FEED_3_3  CUTS_vgo_3  -0.5113759357
    FEED_3_3  CUT_res_3  -0.1524910767
    FEED_3_3  CUTS_res_3  -0.7791859962
    BUY_4_3  MARGIN  69.03818729
    BUY_4_3  LOTMIN_4_3  1
    BUY_4_3  LOTMAX_4_3  1
    BUY_4_3  CBAL_4_3  -1
    MARKER  'MARKER'  'INTORG'
    CARGO_4_3  MARGIN  2123.352446
    CARGO_4_3  LOTMIN_4_3  -150
    CARGO_4_3  LOTMAX_4_3  -600
    MARKER  'MARKER'  'INTEND'
    CINV_4_3  MARGIN  0.4
    CINV_4_3  CBAL_4_3  1
    CINV_4_3  CBAL_4_4  -1
    FEED_4_3  CBAL_4_3  1
    FEED_4_3  CDU_3  1
    FEED_4_3  MARGIN  2
    FEED_4_3  CUT_lpg_3  -0.02124109062
    FEED_4_3  CUT_nap_3  -0.1562054531
    FEED_4_3  CUTS_nap_3  -0.01072341631
    FEED_4_3  CUT_ker_3  -0.1224821812
    FEED_4_3  CUTS_ker_3  -0.02522499812
    FEED_4_3  CUT_gso_3  -0.2024821812
    FEED_4_3  CUTS_gso_3  -0.1668034514
    FEED_4_3  CUT_vgo_3  -0.231264849
    FEED_4_3  CUTS_vgo_3  -0.3810288367
    FEED_4_3  CUT_res_3  -0.2663242449
    FEED_4_3  CUTS_res_3  -0.9141504649
    BUY_5_3  MARGIN  74.02787439
    BUY_5_3  LOTMIN_5_3  1
    BUY_5_3  LOTMAX_5_3  1
    BUY_5_3  CBAL_5_3  -1
    MARKER  'MARKER'  'INTORG'
    CARGO_5_3  MARGIN  1194.699418
    CARGO_5_3  LOTMIN_5_3  -150
    CARGO_5_3  LOTMAX_5_3  -600
    MARKER  'MARKER'  'INTEND'
    CINV_5_3  MARGIN  0.4
    CINV_5_3  CBAL_5_3  1
    CINV_5_3  CBAL_5_4  -1
    FEED_5_3  CBAL_5_3  1
    FEED_5_3  CDU_3  1
    FEED_5_3  MARGIN  2
    FEED_5_3  CUT_lpg_3  -0.03311569419
    FEED_5_3  CUT_nap_3  -0.215578471
    FEED_5_3  CUTS_nap_3  -0.0179457285
    FEED_5_3  CUT_ker_3  -0.1462313884
    FEED_5_3  CUTS_ker_3  -0.0365188896
    FEED_5_3  CUT_gso_3  -0.2262313884
    FEED_5_3  CUTS_gso_3  -0.2259903072
    FEED_5_3  CUT_vgo_3  -0.211473843
    FEED_5_3  CUTS_vgo_3  -0.4224969762
    FEED_5_3  CUT_res_3  -0.167369215
    FEED_5_3  CUTS_res_3  -0.6966285823
    BUY_6_3  MARGIN  73.53844218
    BUY_6_3  LOTMIN_6_3  1
    BUY_6_3  LOTMAX_6_3  1
    BUY_6_3  CBAL_6_3  -1
    MARKER  'MARKER'  'INTORG'
    CARGO_6_3  MARGIN  1524.354155
    CARGO_6_3  LOTMIN_6_3  -150
    CARGO_6_3  LOTMAX_6_3  -600
    MARKER  'MARKER'  'INTEND'
    CINV_6_3  MARGIN  0.4
    CINV_6_3  CBAL_6_3  1
    CINV_6_3  CBAL_6_4  -1
    FEED_6_3  CBAL_6_3  1
    FEED_6_3  CDU_3  1
    FEED_6_3  MARGIN  2
    FEED_6_3  CUT_lpg_3  -0.03427419703
    FEED_6_3  CUT_nap_3  -0.2213709851
    FEED_6_3  CUTS_nap_3  -0.0177558017
    FEED_6_3  CUT_ker_3  -0.1485483941
    FEED_6_3  CUTS_ker_3  -0.03574446524
    FEED_6_3  CUT_gso_3  -0.2285483941
    FEED_6_3  CUTS_gso_3  -0.219977878
    FEED_6_3  CUT_vgo_3  -0.209543005
    FEED_6_3  CUTS_vgo_3  -0.4033703739
    FEED_6_3  CUT_res_3  -0.1577150248
    FEED_6_3  CUTS_res_3  -0.6325031042
    BUY_7_3  MARGIN  65.98112648
    BUY_7_3  LOTMIN_7_3  1
    BUY_7_3  LOTMAX_7_3  1
    BUY_7_3  CBAL_7_3  -1
    MARKER  'MARKER'  'INTORG'
    CARGO_7_3  MARGIN  1793.58348
    CARGO_7_3  LOTMIN_7_3  -150
    CARGO_7_3  LOTMAX_7_3  -600
    MARKER  'MARKER'  'INTEND'
    CINV_7_3  MARGIN  0.4
    CINV_7_3  CBAL_7_3  1
    CINV_7_3  CBAL_7_4  -1
    FEED_7_3  CBAL_7_3  1
    FEED_7_3  CDU_3  1
    FEED_7_3  MARGIN  2
    FEED_7_3  CUT_lpg_3  -0.01083924952
    FEED_7_3  CUT_nap_3  -0.1041962476
    FEED_7_3  CUTS_nap_3  -0.003989958728
    FEED_7_3  CUT_ker_3  -0.101678499
    FEED_7_3  CUTS_ker_3  -0.01168064179
    FEED_7_3  CUT_gso_3  -0.181678499
    FEED_7_3  CUTS_gso_3  -0.08348358752
    FEED_7_3  CUT_vgo_3  -0.2486012508
    FEED_7_3  CUTS_vgo_3  -0.228470891
    FEED_7_3  CUT_res_3  -0.353006254
    FEED_7_3  CUTS_res_3  -0.6758786504
    BUY_8_3  MARGIN  63.04385081
    BUY_8_3  LOTMIN_8_3  1
    BUY_8_3  LOTMAX_8_3  1
    BUY_8_3  CBAL_8_3  -1
    MARKER  'MARKER'  'INTORG'
    CARGO_8_3  MARGIN  918.1761435
    CARGO_8_3  LOTMIN_8_3  -150
    CARGO_8_3  LOTMAX_8_3  -600
    MARKER  'MARKER'  'INTEND'
    CINV_8_3  MARGIN  0.4
    CINV_8_3  CBAL_8_3  1
    CINV_8_3  CBAL_8_4  -1
    FEED_8_3  CBAL_8_3  1
    FEED_8_3  CDU_3  1
    FEED_8_3  MARGIN  2
    FEED_8_3  CUT_lpg_3  -0.01328465882
    FEED_8_3  CUT_nap_3  -0.1164232941
    FEED_8_3  CUTS_nap_3  -0.01112963641
    FEED_8_3  CUT_ker_3  -0.1065693176
    FEED_8_3  CUTS_ker_3  -0.03056289808
    FEED_8_3  CUT_gso_3  -0.1865693176
    FEED_8_3  CUTS_gso_3  -0.2140240424
    FEED_8_3  CUT_vgo_3  -0.2445255686
    FEED_8_3  CUTS_vgo_3  -0.5610177637
    FEED_8_3  CUT_res_3  -0.3326278432
    FEED_8_3  CUTS_res_3  -1.589899591
    BUY_9_3  MARGIN  60.50770963
    BUY_9_3  LOTMIN_9_3  1
    BUY_9_3  LOTMAX_9_3  1
    BUY_9_3  CBAL_9_3  -1
    MARKER  'MARKER'  'INTORG'
    CARGO_9_3  MARGIN  1155.454687
    CARGO_9_3  LOTMIN_9_3  -150
    CARGO_9_3  LOTMAX_9_3  -600
    MARKER  'MARKER'  'INTEND'
    CINV_9_3  MARGIN  0.4
    CINV_9_3  CBAL_9_3  1
    CINV_9_3  CBAL_9_4  -1
    FEED_9_3  CBAL_9_3  1
    FEED_9_3  CDU_3  1
    FEED_9_3  MARGIN  2
    FEED_9_3  CUT_lpg_3  -0.01326285077
    FEED_9_3  CUT_nap_3  -0.1163142539
    FEED_9_3  CUTS_nap_3  -0.0157575203
    FEED_9_3  CUT_ker_3  -0.1065257015
    FEED_9_3  CUTS_ker_3  -0.04329428722
    FEED_9_3  CUT_gso_3  -0.1865257015
    FEED_9_3  CUTS_gso_3  -0.3032318841
    FEED_9_3  CUT_vgo_3  -0.2445619154
    FEED_9_3  CUTS_vgo_3  -0.7951608789
    FEED_9_3  CUT_res_3  -0.3328095769
    FEED_9_3  CUTS_res_3  -2.254346948
    BUY_10_3  MARGIN  72.07395902
    BUY_10_3  LOTMIN_10_3  1
    BUY_10_3  LOTMAX_10_3  1
    BUY_10_3  CBAL_10_3  -1
    MARKER  'MARKER'  'INTORG'
    CARGO_10_3  MARGIN  1902.460911
    CARGO_10_3  LOTMIN_10_3  -150
    CARGO_10_3  LOTMAX_10_3  -600
    MARKER  'MARKER'  'INTEND'
    CINV_10_3  MARGIN  0.4
    CINV_10_3  CBAL_10_3  1
    CINV_10_3  CBAL_10_4  -1
    FEED_10_3  CBAL_10_3  1
    FEED_10_3  CDU_3  1
    FEED_10_3  MARGIN  2
    FEED_10_3  CUT_lpg_3  -0.03393432573
    FEED_10_3  CUT_nap_3  -0.2196716287
    FEED_10_3  CUTS_nap_3  -0.01755328544
    FEED_10_3  CUT_ker_3  -0.1478686515
    FEED_10_3  CUTS_ker_3  -0.03544718993
    FEED_10_3  CUT_gso_3  -0.2278686515
    FEED_10_3  CUTS_gso_3  -0.2184994125
    FEED_10_3  CUT_vgo_3  -0.2101094571
    FEED_10_3  CUTS_vgo_3  -0.4029408402
    FEED_10_3  CUT_res_3  -0.1605472856
    FEED_10_3  CUTS_res_3  -0.6414420352
    BUY_11_3  MARGIN  72.70793959
    BUY_11_3  LOTMIN_11_3  1
    BUY_11_3  LOTMAX_11_3  1
    BUY_11_3  CBAL_11_3  -1
    MARKER  'MARKER'  'INTORG'
    CARGO_11_3  MARGIN  814.4164462
    CARGO_11_3  LOTMIN_11_3  -150
    CARGO_11_3  LOTMAX_11_3  -600
    MARKER  'MARKER'  'INTEND'
    CINV_11_3  MARGIN  0.4
    CINV_11_3  CBAL_11_3  1
    CINV_11_3  CBAL_11_4  -1
    FEED_11_3  CBAL_11_3  1
    FEED_11_3  CDU_3  1
    FEED_11_3  MARGIN  2
    FEED_11_3  CUT_lpg_3  -0.03231526356
    FEED_11_3  CUT_nap_3  -0.2115763178
    FEED_11_3  CUTS_nap_3  -0.01382544985
    FEED_11_3  CUT_ker_3  -0.1446305271
    FEED_11_3  CUTS_ker_3  -0.02835263588
    FEED_11_3  CUT_gso_3  -0.2246305271
    FEED_11_3  CUTS_gso_3  -0.1761417225
    FEED_11_3  CUT_vgo_3  -0.2128078941
    FEED_11_3  CUTS_vgo_3  -0.3337422523
    FEED_11_3  CUT_res_3  -0.1740394703
    FEED_11_3  CUTS_res_3  -0.5686302689
    SR_lpg_3  CUT_lpg_3  1
    SR_lpg_3  LPGP_3  1
    SRS_lpg_3  CUTS_lpg_3  1
    SRS_lpg_3  SULF_3  1
    SR_nap_3  CUT_nap_3  1
    SR_nap_3  NAP_3  1
    SRS_nap_3  CUTS_nap_3  1
    SRS_nap_3  SULF_3  1
    SR_ker_3  CUT_ker_3  1
    SR_ker_3  KER_3  1
    SRS_ker_3  CUTS_ker_3  1
    SRS_ker_3  SULF_3  1
    SR_gso_3  CUT_gso_3  1
    SR_gso_3  GSO_3  1
    SRS_gso_3  CUTS_gso_3  1
    SRS_gso_3  SULF_3  1
    SR_vgo_3  CUT_vgo_3  1
    SR_vgo_3  VGO_3  1
    SRS_vgo_3  CUTS_vgo_3  1
    SRS_vgo_3  SULF_3  1
    SR_res_3  CUT_res_3  1
    SR_res_3  RES_3  1
    SRS_res_3  CUTS_res_3  1
    SRS_res_3  SULF_3  1
    MARKER  'MARKER'  'INTORG'
    FCCON_3  MARGIN  3000
    FCCON_3  FCCMIN_3  -180
    FCCON_3  FCCMAX_3  -450
    MARKER  'MARKER'  'INTEND'
    FCCFEED_3  MARGIN  4
    FCCFEED_3  FCCMIN_3  1
    FCCFEED_3  FCCMAX_3  1
    FCCFEED_3  VGO_3  -1
    FCCFEED_3  GAS_3  0.55
    FCCFEED_3  GASOCT_3  2.75
    FCCFEED_3  DSL_3  0.3
    FCCFEED_3  FO_3  0.1
    FCCFEED_3  DSLS_3  0.24
    VGO2FO_3  VGO_3  -1
    VGO2FO_3  FO_3  1
    NAP2GAS_3  NAP_3  -1
    NAP2GAS_3  GAS_3  1
    NAP2GAS_3  GASOCT_3  -19
    NAP2FO_3  NAP_3  -1
    NAP2FO_3  FO_3  1
    KER2JET_3  KER_3  -1
    KER2JET_3  JET_3  1
    KER2JET_3  JETS_3  -0.05
    KER2DSL_3  KER_3  -1
    KER2DSL_3  DSL_3  1
    KER2DSL_3  DSLS_3  0.9
    GSO2DSL_3  GSO_3  -1
    GSO2DSL_3  DSL_3  1
    GSO2DSL_3  DSLS_3  1.4
    GSO2FO_3  GSO_3  -1
    GSO2FO_3  FO_3  1
    RES2FO_3  RES_3  -1
    RES2FO_3  FO_3  1
    PROD_lpg_3  LPGP_3  -1
    PROD_lpg_3  PBAL_lpg_3  1
    PROD_gas_3  GAS_3  -1
    PROD_gas_3  PBAL_gas_3  1
    PROD_jet_3  JET_3  -1
    PROD_jet_3  PBAL_jet_3  1
    PROD_dsl_3  DSL_3  -1
    PROD_dsl_3  DSLS_3  -1
    PROD_dsl_3  PBAL_dsl_3  1
    PROD_fo_3  FO_3  -1
    PROD_fo_3  PBAL_fo_3  1
    SELL_lpg_3  MARGIN  -60
    SELL_lpg_3  PBAL_lpg_3  -1
    PINV_lpg_3  MARGIN  0.8
    PINV_lpg_3  PBAL_lpg_3  -1
    PINV_lpg_3  PBAL_lpg_4  1
    SELL_gas_3  MARGIN  -105
    SELL_gas_3  PBAL_gas_3  -1
    PINV_gas_3  MARGIN  0.8
    PINV_gas_3  PBAL_gas_3  -1
    PINV_gas_3  PBAL_gas_4  1
    SELL_jet_3  MARGIN  -100
    SELL_jet_3  PBAL_jet_3  -1
    PINV_jet_3  MARGIN  0.8
    PINV_jet_3  PBAL_jet_3  -1
    PINV_jet_3  PBAL_jet_4  1
    SELL_dsl_3  MARGIN  -98
    SELL_dsl_3  PBAL_dsl_3  -1
    PINV_dsl_3  MARGIN  0.8
    PINV_dsl_3  PBAL_dsl_3  -1
    PINV_dsl_3  PBAL_dsl_4  1
    SELL_fo_3  MARGIN  -55
    SELL_fo_3  PBAL_fo_3  -1
    PINV_fo_3  MARGIN  0.8
    PINV_fo_3  PBAL_fo_3  -1
    PINV_fo_3  PBAL_fo_4  1
    BUY_0_4  MARGIN  62.43723806
    BUY_0_4  LOTMIN_0_4  1
    BUY_0_4  LOTMAX_0_4  1
    BUY_0_4  CBAL_0_4  -1
    MARKER  'MARKER'  'INTORG'
    CARGO_0_4  MARGIN  1233.617344
    CARGO_0_4  LOTMIN_0_4  -150
    CARGO_0_4  LOTMAX_0_4  -600
    MARKER  'MARKER'  'INTEND'
    CINV_0_4  MARGIN  0.4
    CINV_0_4  CBAL_0_4  1
    CINV_0_4  CBAL_0_5  -1
    FEED_0_4  CBAL_0_4  1
    FEED_0_4  CDU_4  1
    FEED_0_4  MARGIN  2
    FEED_0_4  CUT_lpg_4  -0.01403092732
    FEED_0_4  CUT_nap_4  -0.1201546366
    FEED_0_4  CUTS_nap_4  -0.01536512163
    FEED_0_4  CUT_ker_4  -0.1080618546
    FEED_0_4  CUTS_ker_4  -0.04145616649
    FEED_0_4  CUT_gso_4  -0.1880618546
    FEED_0_4  CUTS_gso_4  -0.2885874421
    FEED_0_4  CUT_vgo_4  -0.2432817878
    FEED_0_4  CUTS_vgo_4  -0.7466486916
    FEED_0_4  CUT_res_4  -0.326408939
    FEED_0_4  CUTS_res_4  -2.08702435
    BUY_1_4  MARGIN  62.98571642
    BUY_1_4  LOTMIN_1_4  1
    BUY_1_4  LOTMAX_1_4  1
    BUY_1_4  CBAL_1_4  -1
    MARKER  'MARKER'  'INTORG'
    CARGO_1_4  MARGIN  852.0029712
    CARGO_1_4  LOTMIN_1_4  -150
    CARGO_1_4  LOTMAX_1_4  -600
    MARKER  'MARKER'  'INTEND'
    CINV_1_4  MARGIN  0.4
    CINV_1_4  CBAL_1_4  1
    CINV_1_4  CBAL_1_5  -1
    FEED_1_4  CBAL_1_4  1
    FEED_1_4  CDU_4  1
    FEED_1_4  MARGIN  2
    FEED_1_4  CUT_lpg_4  -0.01686286664
    FEED_1_4  CUT_nap_4  -0.1343143332
    FEED_1_4  CUTS_nap_4  -0.01908126512
    FEED_1_4  CUT_ker_4  -0.1137257333
    FEED_1_4  CUTS_ker_4  -0.0484690833
    FEED_1_4  CUT_gso_4  -0.1937257333
    FEED_1_4  CUTS_gso_4  -0.330258014
    FEED_1_4  CUT_vgo_4  -0.2385618889
    FEED_1_4  CUTS_vgo_4  -0.8133867848
    FEED_1_4  CUT_res_4  -0.3028094447
    FEED_1_4  CUTS_res_4  -2.150919846
    BUY_2_4  MARGIN  66.0530987
    BUY_2_4  LOTMIN_2_4  1
    BUY_2_4  LOTMAX_2_4  1
    BUY_2_4  CBAL_2_4  -1
    MARKER  'MARKER'  'INTORG'
    CARGO_2_4  MARGIN  836.532499
    CARGO_2_4  LOTMIN_2_4  -150
    CARGO_2_4  LOTMAX_2_4  -600
    MARKER  'MARKER'  'INTEND'
    CINV_2_4  MARGIN  0.4
    CINV_2_4  CBAL_2_4  1
    CINV_2_4  CBAL_2_5  -1
    FEED_2_4  CBAL_2_4  1
    FEED_2_4  CDU_4  1
    FEED_2_4  MARGIN  2
    FEED_2_4  CUT_lpg_4  -0.01656343112
    FEED_2_4  CUT_nap_4  -0.1328171556
    FEED_2_4  CUTS_nap_4  -0.009515353406
    FEED_2_4  CUT_ker_4  -0.1131268622
    FEED_2_4  CUTS_ker_4  -0.02431407454
    FEED_2_4  CUT_gso_4  -0.1931268622
    FEED_2_4  CUTS_gso_4  -0.1660331006
    FEED_2_4  CUT_vgo_4  -0.2390609481
    FEED_2_4  CUTS_vgo_4  -0.41104619
    FEED_2_4  CUT_res_4  -0.3053047407
    FEED_2_4  CUTS_res_4  -1.093639783
    BUY_3_4  MARGIN  70.99835779
    BUY_3_4  LOTMIN_3_4  1
    BUY_3_4  LOTMAX_3_4  1
    BUY_3_4  CBAL_3_4  -1
    MARKER  'MARKER'  'INTORG'
    CARGO_3_4  MARGIN  1798.88703
    CARGO_3_4  LOTMIN_3_4  -150
    CARGO_3_4  LOTMAX_3_4  -600
    MARKER  'MARKER'  'INTEND'
    CINV_3_4  MARGIN  0.4
    CINV_3_4  CBAL_3_4  1
    CINV_3_4  CBAL_3_5  -1
    FEED_3_4  CBAL_3_4  1
    FEED_3_4  CDU_4  1
    FEED_3_4  MARGIN  2
    FEED_3_4  CUT_lpg_4  -0.0349010708
    FEED_3_4  CUT_nap_4  -0.224505354
    FEED_3_4  CUTS_nap_4  -0.0229431691
    FEED_3_4  CUT_ker_4  -0.1498021416
    FEED_3_4  CUTS_ker_4  -0.0459267782
    FEED_3_4  CUT_gso_4  -0.2298021416
    FEED_3_4  CUTS_gso_4  -0.2818136476
    FEED_3_4  CUT_vgo_4  -0.2084982153
    FEED_3_4  CUTS_vgo_4  -0.5113759357
    FEED_3_4  CUT_res_4  -0.1524910767
    FEED_3_4  CUTS_res_4  -0.7791859962
    BUY_4_4  MARGIN  69.03818729
    BUY_4_4  LOTMIN_4_4  1
    BUY_4_4  LOTMAX_4_4  1
    BUY_4_4  CBAL_4_4  -1
    MARKER  'MARKER'  'INTORG'
    CARGO_4_4  MARGIN  2123.352446
    CARGO_4_4  LOTMIN_4_4  -150
    CARGO_4_4  LOTMAX_4_4  -600
    MARKER  'MARKER'  'INTEND'
    CINV_4_4  MARGIN  0.4
    CINV_4_4  CBAL_4_4  1
    CINV_4_4  CBAL_4_5  -1
    FEED_4_4  CBAL_4_4  1
    FEED_4_4  CDU_4  1
    FEED_4_4  MARGIN  2
    FEED_4_4  CUT_lpg_4  -0.02124109062
    FEED_4_4  CUT_nap_4  -0.1562054531
    FEED_4_4  CUTS_nap_4  -0.01072341631
    FEED_4_4  CUT_ker_4  -0.1224821812
    FEED_4_4  CUTS_ker_4  -0.02522499812
    FEED_4_4  CUT_gso_4  -0.2024821812
    FEED_4_4  CUTS_gso_4  -0.1668034514
    FEED_4_4  CUT_vgo_4  -0.231264849
    FEED_4_4  CUTS_vgo_4  -0.3810288367
    FEED_4_4  CUT_res_4  -0.2663242449
    FEED_4_4  CUTS_res_4  -0.9141504649
    BUY_5_4  MARGIN  74.02787439
    BUY_5_4  LOTMIN_5_4  1
    BUY_5_4  LOTMAX_5_4  1
    BUY_5_4  CBAL_5_4  -1
    MARKER  'MARKER'  'INTORG'
    CARGO_5_4  MARGIN  1194.699418
    CARGO_5_4  LOTMIN_5_4  -150
    CARGO_5_4  LOTMAX_5_4  -600
    MARKER  'MARKER'  'INTEND'
    CINV_5_4  MARGIN  0.4
    CINV_5_4  CBAL_5_4  1
    CINV_5_4  CBAL_5_5  -1
    FEED_5_4  CBAL_5_4  1
    FEED_5_4  CDU_4  1
    FEED_5_4  MARGIN  2
    FEED_5_4  CUT_lpg_4  -0.03311569419
    FEED_5_4  CUT_nap_4  -0.215578471
    FEED_5_4  CUTS_nap_4  -0.0179457285
    FEED_5_4  CUT_ker_4  -0.1462313884
    FEED_5_4  CUTS_ker_4  -0.0365188896
    FEED_5_4  CUT_gso_4  -0.2262313884
    FEED_5_4  CUTS_gso_4  -0.2259903072
    FEED_5_4  CUT_vgo_4  -0.211473843
    FEED_5_4  CUTS_vgo_4  -0.4224969762
    FEED_5_4  CUT_res_4  -0.167369215
    FEED_5_4  CUTS_res_4  -0.6966285823
    BUY_6_4  MARGIN  73.53844218
    BUY_6_4  LOTMIN_6_4  1
    BUY_6_4  LOTMAX_6_4  1
    BUY_6_4  CBAL_6_4  -1
    MARKER  'MARKER'  'INTORG'
    CARGO_6_4  MARGIN  1524.354155
    CARGO_6_4  LOTMIN_6_4  -150
    CARGO_6_4  LOTMAX_6_4  -600
    MARKER  'MARKER'  'INTEND'
    CINV_6_4  MARGIN  0.4
    CINV_6_4  CBAL_6_4  1
    CINV_6_4  CBAL_6_5  -1
    FEED_6_4  CBAL_6_4  1
    FEED_6_4  CDU_4  1
    FEED_6_4  MARGIN  2
    FEED_6_4  CUT_lpg_4  -0.03427419703
    FEED_6_4  CUT_nap_4  -0.2213709851
    FEED_6_4  CUTS_nap_4  -0.0177558017
    FEED_6_4  CUT_ker_4  -0.1485483941
    FEED_6_4  CUTS_ker_4  -0.03574446524
    FEED_6_4  CUT_gso_4  -0.2285483941
    FEED_6_4  CUTS_gso_4  -0.219977878
    FEED_6_4  CUT_vgo_4  -0.209543005
    FEED_6_4  CUTS_vgo_4  -0.4033703739
    FEED_6_4  CUT_res_4  -0.1577150248
    FEED_6_4  CUTS_res_4  -0.6325031042
    BUY_7_4  MARGIN  65.98112648
    BUY_7_4  LOTMIN_7_4  1
    BUY_7_4  LOTMAX_7_4  1
    BUY_7_4  CBAL_7_4  -1
    MARKER  'MARKER'  'INTORG'
    CARGO_7_4  MARGIN  1793.58348
    CARGO_7_4  LOTMIN_7_4  -150
    CARGO_7_4  LOTMAX_7_4  -600
    MARKER  'MARKER'  'INTEND'
    CINV_7_4  MARGIN  0.4
    CINV_7_4  CBAL_7_4  1
    CINV_7_4  CBAL_7_5  -1
    FEED_7_4  CBAL_7_4  1
    FEED_7_4  CDU_4  1
    FEED_7_4  MARGIN  2
    FEED_7_4  CUT_lpg_4  -0.01083924952
    FEED_7_4  CUT_nap_4  -0.1041962476
    FEED_7_4  CUTS_nap_4  -0.003989958728
    FEED_7_4  CUT_ker_4  -0.101678499
    FEED_7_4  CUTS_ker_4  -0.01168064179
    FEED_7_4  CUT_gso_4  -0.181678499
    FEED_7_4  CUTS_gso_4  -0.08348358752
    FEED_7_4  CUT_vgo_4  -0.2486012508
    FEED_7_4  CUTS_vgo_4  -0.228470891
    FEED_7_4  CUT_res_4  -0.353006254
    FEED_7_4  CUTS_res_4  -0.6758786504
    BUY_8_4  MARGIN  63.04385081
    BUY_8_4  LOTMIN_8_4  1
    BUY_8_4  LOTMAX_8_4  1
    BUY_8_4  CBAL_8_4  -1
    MARKER  'MARKER'  'INTORG'
    CARGO_8_4  MARGIN  918.1761435
    CARGO_8_4  LOTMIN_8_4  -150
    CARGO_8_4  LOTMAX_8_4  -600
    MARKER  'MARKER'  'INTEND'
    CINV_8_4  MARGIN  0.4
    CINV_8_4  CBAL_8_4  1
    CINV_8_4  CBAL_8_5  -1
    FEED_8_4  CBAL_8_4  1
    FEED_8_4  CDU_4  1
    FEED_8_4  MARGIN  2
    FEED_8_4  CUT_lpg_4  -0.01328465882
    FEED_8_4  CUT_nap_4  -0.1164232941
    FEED_8_4  CUTS_nap_4  -0.01112963641
    FEED_8_4  CUT_ker_4  -0.1065693176
    FEED_8_4  CUTS_ker_4  -0.03056289808
    FEED_8_4  CUT_gso_4  -0.1865693176
    FEED_8_4  CUTS_gso_4  -0.2140240424
    FEED_8_4  CUT_vgo_4  -0.2445255686
    FEED_8_4  CUTS_vgo_4  -0.5610177637
    FEED_8_4  CUT_res_4  -0.3326278432
    FEED_8_4  CUTS_res_4  -1.589899591
    BUY_9_4  MARGIN  60.50770963
    BUY_9_4  LOTMIN_9_4  1
    BUY_9_4  LOTMAX_9_4  1
    BUY_9_4  CBAL_9_4  -1
    MARKER  'MARKER'  'INTORG'
    CARGO_9_4  MARGIN  1155.454687
    CARGO_9_4  LOTMIN_9_4  -150
    CARGO_9_4  LOTMAX_9_4  -600
    MARKER  'MARKER'  'INTEND'
    CINV_9_4  MARGIN  0.4
    CINV_9_4  CBAL_9_4  1
    CINV_9_4  CBAL_9_5  -1
    FEED_9_4  CBAL_9_4  1
    FEED_9_4  CDU_4  1
    FEED_9_4  MARGIN  2
    FEED_9_4  CUT_lpg_4  -0.01326285077
    FEED_9_4  CUT_nap_4  -0.1163142539
    FEED_9_4  CUTS_nap_4  -0.0157575203
    FEED_9_4  CUT_ker_4  -0.1065257015
    FEED_9_4  CUTS_ker_4  -0.04329428722
    FEED_9_4  CUT_gso_4  -0.1865257015
    FEED_9_4  CUTS_gso_4  -0.3032318841
    FEED_9_4  CUT_vgo_4  -0.2445619154
    FEED_9_4  CUTS_vgo_4  -0.7951608789
    FEED_9_4  CUT_res_4  -0.3328095769
    FEED_9_4  CUTS_res_4  -2.254346948
    BUY_10_4  MARGIN  72.07395902
    BUY_10_4  LOTMIN_10_4  1
    BUY_10_4  LOTMAX_10_4  1
    BUY_10_4  CBAL_10_4  -1
    MARKER  'MARKER'  'INTORG'
    CARGO_10_4  MARGIN  1902.460911
    CARGO_10_4  LOTMIN_10_4  -150
    CARGO_10_4  LOTMAX_10_4  -600
    MARKER  'MARKER'  'INTEND'
    CINV_10_4  MARGIN  0.4
    CINV_10_4  CBAL_10_4  1
    CINV_10_4  CBAL_10_5  -1
    FEED_10_4  CBAL_10_4  1
    FEED_10_4  CDU_4  1
    FEED_10_4  MARGIN  2
    FEED_10_4  CUT_lpg_4  -0.03393432573
    FEED_10_4  CUT_nap_4  -0.2196716287
    FEED_10_4  CUTS_nap_4  -0.01755328544
    FEED_10_4  CUT_ker_4  -0.1478686515
    FEED_10_4  CUTS_ker_4  -0.03544718993
    FEED_10_4  CUT_gso_4  -0.2278686515
    FEED_10_4  CUTS_gso_4  -0.2184994125
    FEED_10_4  CUT_vgo_4  -0.2101094571
    FEED_10_4  CUTS_vgo_4  -0.4029408402
    FEED_10_4  CUT_res_4  -0.1605472856
    FEED_10_4  CUTS_res_4  -0.6414420352
    BUY_11_4  MARGIN  72.70793959
    BUY_11_4  LOTMIN_11_4  1
    BUY_11_4  LOTMAX_11_4  1
    BUY_11_4  CBAL_11_4  -1
    MARKER  'MARKER'  'INTORG'
    CARGO_11_4  MARGIN  814.4164462
    CARGO_11_4  LOTMIN_11_4  -150
    CARGO_11_4  LOTMAX_11_4  -600
    MARKER  'MARKER'  'INTEND'
    CINV_11_4  MARGIN  0.4
    CINV_11_4  CBAL_11_4  1
    CINV_11_4  CBAL_11_5  -1
    FEED_11_4  CBAL_11_4  1
    FEED_11_4  CDU_4  1
    FEED_11_4  MARGIN  2
    FEED_11_4  CUT_lpg_4  -0.03231526356
    FEED_11_4  CUT_nap_4  -0.2115763178
    FEED_11_4  CUTS_nap_4  -0.01382544985
    FEED_11_4  CUT_ker_4  -0.1446305271
    FEED_11_4  CUTS_ker_4  -0.02835263588
    FEED_11_4  CUT_gso_4  -0.2246305271
    FEED_11_4  CUTS_gso_4  -0.1761417225
    FEED_11_4  CUT_vgo_4  -0.2128078941
    FEED_11_4  CUTS_vgo_4  -0.3337422523
    FEED_11_4  CUT_res_4  -0.1740394703
    FEED_11_4  CUTS_res_4  -0.5686302689
    SR_lpg_4  CUT_lpg_4  1
    SR_lpg_4  LPGP_4  1
    SRS_lpg_4  CUTS_lpg_4  1
    SRS_lpg_4  SULF_4  1
    SR_nap_4  CUT_nap_4  1
    SR_nap_4  NAP_4  1
    SRS_nap_4  CUTS_nap_4  1
    SRS_nap_4  SULF_4  1
    SR_ker_4  CUT_ker_4  1
    SR_ker_4  KER_4  1
    SRS_ker_4  CUTS_ker_4  1
    SRS_ker_4  SULF_4  1
    SR_gso_4  CUT_gso_4  1
    SR_gso_4  GSO_4  1
    SRS_gso_4  CUTS_gso_4  1
    SRS_gso_4  SULF_4  1
    SR_vgo_4  CUT_vgo_4  1
    SR_vgo_4  VGO_4  1
    SRS_vgo_4  CUTS_vgo_4  1
    SRS_vgo_4  SULF_4  1
    SR_res_4  CUT_res_4  1
    SR_res_4  RES_4  1
    SRS_res_4  CUTS_res_4  1
    SRS_res_4  SULF_4  1
    MARKER  'MARKER'  'INTORG'
    FCCON_4  MARGIN  3000
    FCCON_4  FCCMIN_4  -180
    FCCON_4  FCCMAX_4  -450
    MARKER  'MARKER'  'INTEND'
    FCCFEED_4  MARGIN  4
    FCCFEED_4  FCCMIN_4  1
    FCCFEED_4  FCCMAX_4  1
    FCCFEED_4  VGO_4  -1
    FCCFEED_4  GAS_4  0.55
    FCCFEED_4  GASOCT_4  2.75
    FCCFEED_4  DSL_4  0.3
    FCCFEED_4  FO_4  0.1
    FCCFEED_4  DSLS_4  0.24
    VGO2FO_4  VGO_4  -1
    VGO2FO_4  FO_4  1
    NAP2GAS_4  NAP_4  -1
    NAP2GAS_4  GAS_4  1
    NAP2GAS_4  GASOCT_4  -19
    NAP2FO_4  NAP_4  -1
    NAP2FO_4  FO_4  1
    KER2JET_4  KER_4  -1
    KER2JET_4  JET_4  1
    KER2JET_4  JETS_4  -0.05
    KER2DSL_4  KER_4  -1
    KER2DSL_4  DSL_4  1
    KER2DSL_4  DSLS_4  0.9
    GSO2DSL_4  GSO_4  -1
    GSO2DSL_4  DSL_4  1
    GSO2DSL_4  DSLS_4  1.4
    GSO2FO_4  GSO_4  -1
    GSO2FO_4  FO_4  1
    RES2FO_4  RES_4  -1
    RES2FO_4  FO_4  1
    PROD_lpg_4  LPGP_4  -1
    PROD_lpg_4  PBAL_lpg_4  1
    PROD_gas_4  GAS_4  -1
    PROD_gas_4  PBAL_gas_4  1
    PROD_jet_4  JET_4  -1
    PROD_jet_4  PBAL_jet_4  1
    PROD_dsl_4  DSL_4  -1
    PROD_dsl_4  DSLS_4  -1
    PROD_dsl_4  PBAL_dsl_4  1
    PROD_fo_4  FO_4  -1
    PROD_fo_4  PBAL_fo_4  1
    SELL_lpg_4  MARGIN  -60
    SELL_lpg_4  PBAL_lpg_4  -1
    PINV_lpg_4  MARGIN  0.8
    PINV_lpg_4  PBAL_lpg_4  -1
    PINV_lpg_4  PBAL_lpg_5  1
    SELL_gas_4  MARGIN  -105
    SELL_gas_4  PBAL_gas_4  -1
    PINV_gas_4  MARGIN  0.8
    PINV_gas_4  PBAL_gas_4  -1
    PINV_gas_4  PBAL_gas_5  1
    SELL_jet_4  MARGIN  -100
    SELL_jet_4  PBAL_jet_4  -1
    PINV_jet_4  MARGIN  0.8
    PINV_jet_4  PBAL_jet_4  -1
    PINV_jet_4  PBAL_jet_5  1
    SELL_dsl_4  MARGIN  -98
    SELL_dsl_4  PBAL_dsl_4  -1
    PINV_dsl_4  MARGIN  0.8
    PINV_dsl_4  PBAL_dsl_4  -1
    PINV_dsl_4  PBAL_dsl_5  1
    SELL_fo_4  MARGIN  -55
    SELL_fo_4  PBAL_fo_4  -1
    PINV_fo_4  MARGIN  0.8
    PINV_fo_4  PBAL_fo_4  -1
    PINV_fo_4  PBAL_fo_5  1
    BUY_0_5  MARGIN  62.43723806
    BUY_0_5  LOTMIN_0_5  1
    BUY_0_5  LOTMAX_0_5  1
    BUY_0_5  CBAL_0_5  -1
    MARKER  'MARKER'  'INTORG'
    CARGO_0_5  MARGIN  1233.617344
    CARGO_0_5  LOTMIN_0_5  -150
    CARGO_0_5  LOTMAX_0_5  -600
    MARKER  'MARKER'  'INTEND'
    CINV_0_5  MARGIN  0.4
    CINV_0_5  CBAL_0_5  1
    CINV_0_5  CBAL_0_6  -1
    FEED_0_5  CBAL_0_5  1
    FEED_0_5  CDU_5  1
    FEED_0_5  MARGIN  2
    FEED_0_5  CUT_lpg_5  -0.01403092732
    FEED_0_5  CUT_nap_5  -0.1201546366
    FEED_0_5  CUTS_nap_5  -0.01536512163
    FEED_0_5  CUT_ker_5  -0.1080618546
    FEED_0_5  CUTS_ker_5  -0.04145616649
    FEED_0_5  CUT_gso_5  -0.1880618546
    FEED_0_5  CUTS_gso_5  -0.2885874421
    FEED_0_5  CUT_vgo_5  -0.2432817878
    FEED_0_5  CUTS_vgo_5  -0.7466486916
    FEED_0_5  CUT_res_5  -0.326408939
    FEED_0_5  CUTS_res_5  -2.08702435
    BUY_1_5  MARGIN  62.98571642
    BUY_1_5  LOTMIN_1_5  1
    BUY_1_5  LOTMAX_1_5  1
    BUY_1_5  CBAL_1_5  -1
    MARKER  'MARKER'  'INTORG'
    CARGO_1_5  MARGIN  852.0029712
    CARGO_1_5  LOTMIN_1_5  -150
    CARGO_1_5  LOTMAX_1_5  -600
    MARKER  'MARKER'  'INTEND'
    CINV_1_5  MARGIN  0.4
    CINV_1_5  CBAL_1_5  1
    CINV_1_5  CBAL_1_6  -1
    FEED_1_5  CBAL_1_5  1
    FEED_1_5  CDU_5  1
    FEED_1_5  MARGIN  2
    FEED_1_5  CUT_lpg_5  -0.01686286664
    FEED_1_5  CUT_nap_5  -0.1343143332
    FEED_1_5  CUTS_nap_5  -0.01908126512
    FEED_1_5  CUT_ker_5  -0.1137257333
    FEED_1_5  CUTS_ker_5  -0.0484690833
    FEED_1_5  CUT_gso_5  -0.1937257333
    FEED_1_5  CUTS_gso_5  -0.330258014
    FEED_1_5  CUT_vgo_5  -0.2385618889
    FEED_1_5  CUTS_vgo_5  -0.8133867848
    FEED_1_5  CUT_res_5  -0.3028094447
    FEED_1_5  CUTS_res_5  -2.150919846
    BUY_2_5  MARGIN  66.0530987
    BUY_2_5  LOTMIN_2_5  1
    BUY_2_5  LOTMAX_2_5  1
    BUY_2_5  CBAL_2_5  -1
    MARKER  'MARKER'  'INTORG'
    CARGO_2_5  MARGIN  836.532499
    CARGO_2_5  LOTMIN_2_5  -150
    CARGO_2_5  LOTMAX_2_5  -600
    MARKER  'MARKER'  'INTEND'
    CINV_2_5  MARGIN  0.4
    CINV_2_5  CBAL_2_5  1
    CINV_2_5  CBAL_2_6  -1
    FEED_2_5  CBAL_2_5  1
    FEED_2_5  CDU_5  1
    FEED_2_5  MARGIN  2
    FEED_2_5  CUT_lpg_5  -0.01656343112
    FEED_2_5  CUT_nap_5  -0.1328171556
    FEED_2_5  CUTS_nap_5  -0.009515353406
    FEED_2_5  CUT_ker_5  -0.1131268622
    FEED_2_5  CUTS_ker_5  -0.02431407454
    FEED_2_5  CUT_gso_5  -0.1931268622
    FEED_2_5  CUTS_gso_5  -0.1660331006
    FEED_2_5  CUT_vgo_5  -0.2390609481
    FEED_2_5  CUTS_vgo_5  -0.41104619
    FEED_2_5  CUT_res_5  -0.3053047407
    FEED_2_5  CUTS_res_5  -1.093639783
    BUY_3_5  MARGIN  70.99835779
    BUY_3_5  LOTMIN_3_5  1
    BUY_3_5  LOTMAX_3_5  1
    BUY_3_5  CBAL_3_5  -1
    MARKER  'MARKER'  'INTORG'
    CARGO_3_5  MARGIN  1798.88703
    CARGO_3_5  LOTMIN_3_5  -150
    CARGO_3_5  LOTMAX_3_5  -600
    MARKER  'MARKER'  'INTEND'
    CINV_3_5  MARGIN  0.4
    CINV_3_5  CBAL_3_5  1
    CINV_3_5  CBAL_3_6  -1
    FEED_3_5  CBAL_3_5  1
    FEED_3_5  CDU_5  1
    FEED_3_5  MARGIN  2
    FEED_3_5  CUT_lpg_5  -0.0349010708
    FEED_3_5  CUT_nap_5  -0.224505354
    FEED_3_5  CUTS_nap_5  -0.0229431691
    FEED_3_5  CUT_ker_5  -0.1498021416
    FEED_3_5  CUTS_ker_5  -0.0459267782
    FEED_3_5  CUT_gso_5  -0.2298021416
    FEED_3_5  CUTS_gso_5  -0.2818136476
    FEED_3_5  CUT_vgo_5  -0.2084982153
    FEED_3_5  CUTS_vgo_5  -0.5113759357
    FEED_3_5  CUT_res_5  -0.1524910767
    FEED_3_5  CUTS_res_5  -0.7791859962
    BUY_4_5  MARGIN  69.03818729
    BUY_4_5  LOTMIN_4_5  1
    BUY_4_5  LOTMAX_4_5  1
    BUY_4_5  CBAL_4_5  -1
    MARKER  'MARKER'  'INTORG'
    CARGO_4_5  MARGIN  2123.352446
    CARGO_4_5  LOTMIN_4_5  -150
    CARGO_4_5  LOTMAX_4_5  -600
    MARKER  'MARKER'  'INTEND'
    CINV_4_5  MARGIN  0.4
    CINV_4_5  CBAL_4_5  1
    CINV_4_5  CBAL_4_6  -1
    FEED_4_5  CBAL_4_5  1
    FEED_4_5  CDU_5  1
    FEED_4_5  MARGIN  2
    FEED_4_5  CUT_lpg_5  -0.02124109062
    FEED_4_5  CUT_nap_5  -0.1562054531
    FEED_4_5  CUTS_nap_5  -0.01072341631
    FEED_4_5  CUT_ker_5  -0.1224821812
    FEED_4_5  CUTS_ker_5  -0.02522499812
    FEED_4_5  CUT_gso_5  -0.2024821812
    FEED_4_5  CUTS_gso_5  -0.1668034514
    FEED_4_5  CUT_vgo_5  -0.231264849
    FEED_4_5  CUTS_vgo_5  -0.3810288367
    FEED_4_5  CUT_res_5  -0.2663242449
    FEED_4_5  CUTS_res_5  -0.9141504649
    BUY_5_5  MARGIN  74.02787439
    BUY_5_5  LOTMIN_5_5  1
    BUY_5_5  LOTMAX_5_5  1
    BUY_5_5  CBAL_5_5  -1
    MARKER  'MARKER'  'INTORG'
    CARGO_5_5  MARGIN  1194.699418
    CARGO_5_5  LOTMIN_5_5  -150
    CARGO_5_5  LOTMAX_5_5  -600
    MARKER  'MARKER'  'INTEND'
    CINV_5_5  MARGIN  0.4
    CINV_5_5  CBAL_5_5  1
    CINV_5_5  CBAL_5_6  -1
    FEED_5_5  CBAL_5_5  1
    FEED_5_5  CDU_5  1
    FEED_5_5  MARGIN  2
    FEED_5_5  CUT_lpg_5  -0.03311569419
    FEED_5_5  CUT_nap_5  -0.215578471
    FEED_5_5  CUTS_nap_5  -0.0179457285
    FEED_5_5  CUT_ker_5  -0.1462313884
    FEED_5_5  CUTS_ker_5  -0.0365188896
    FEED_5_5  CUT_gso_5  -0.2262313884
    FEED_5_5  CUTS_gso_5  -0.2259903072
    FEED_5_5  CUT_vgo_5  -0.211473843
    FEED_5_5  CUTS_vgo_5  -0.4224969762
    FEED_5_5  CUT_res_5  -0.167369215
    FEED_5_5  CUTS_res_5  -0.6966285823
    BUY_6_5  MARGIN  73.53844218
    BUY_6_5  LOTMIN_6_5  1
    BUY_6_5  LOTMAX_6_5  1
    BUY_6_5  CBAL_6_5  -1
    MARKER  'MARKER'  'INTORG'
    CARGO_6_5  MARGIN  1524.354155
    CARGO_6_5  LOTMIN_6_5  -150
    CARGO_6_5  LOTMAX_6_5  -600
    MARKER  'MARKER'  'INTEND'
    CINV_6_5  MARGIN  0.4
    CINV_6_5  CBAL_6_5  1
    CINV_6_5  CBAL_6_6  -1
    FEED_6_5  CBAL_6_5  1
    FEED_6_5  CDU_5  1
    FEED_6_5  MARGIN  2
    FEED_6_5  CUT_lpg_5  -0.03427419703
    FEED_6_5  CUT_nap_5  -0.2213709851
    FEED_6_5  CUTS_nap_5  -0.0177558017
    FEED_6_5  CUT_ker_5  -0.1485483941
    FEED_6_5  CUTS_ker_5  -0.03574446524
    FEED_6_5  CUT_gso_5  -0.2285483941
    FEED_6_5  CUTS_gso_5  -0.219977878
    FEED_6_5  CUT_vgo_5  -0.209543005
    FEED_6_5  CUTS_vgo_5  -0.4033703739
    FEED_6_5  CUT_res_5  -0.1577150248
    FEED_6_5  CUTS_res_5  -0.6325031042
    BUY_7_5  MARGIN  65.98112648
    BUY_7_5  LOTMIN_7_5  1
    BUY_7_5  LOTMAX_7_5  1
    BUY_7_5  CBAL_7_5  -1
    MARKER  'MARKER'  'INTORG'
    CARGO_7_5  MARGIN  1793.58348
    CARGO_7_5  LOTMIN_7_5  -150
    CARGO_7_5  LOTMAX_7_5  -600
    MARKER  'MARKER'  'INTEND'
    CINV_7_5  MARGIN  0.4
    CINV_7_5  CBAL_7_5  1
    CINV_7_5  CBAL_7_6  -1
    FEED_7_5  CBAL_7_5  1
    FEED_7_5  CDU_5  1
    FEED_7_5  MARGIN  2
    FEED_7_5  CUT_lpg_5  -0.01083924952
    FEED_7_5  CUT_nap_5  -0.1041962476
    FEED_7_5  CUTS_nap_5  -0.003989958728
    FEED_7_5  CUT_ker_5  -0.101678499
    FEED_7_5  CUTS_ker_5  -0.01168064179
    FEED_7_5  CUT_gso_5  -0.181678499
    FEED_7_5  CUTS_gso_5  -0.08348358752
    FEED_7_5  CUT_vgo_5  -0.2486012508
    FEED_7_5  CUTS_vgo_5  -0.228470891
    FEED_7_5  CUT_res_5  -0.353006254
    FEED_7_5  CUTS_res_5  -0.6758786504
    BUY_8_5  MARGIN  63.04385081
    BUY_8_5  LOTMIN_8_5  1
    BUY_8_5  LOTMAX_8_5  1
    BUY_8_5  CBAL_8_5  -1
    MARKER  'MARKER'  'INTORG'
    CARGO_8_5  MARGIN  918.1761435
    CARGO_8_5  LOTMIN_8_5  -150
    CARGO_8_5  LOTMAX_8_5  -600
    MARKER  'MARKER'  'INTEND'
    CINV_8_5  MARGIN  0.4
    CINV_8_5  CBAL_8_5  1
    CINV_8_5  CBAL_8_6  -1
    FEED_8_5  CBAL_8_5  1
    FEED_8_5  CDU_5  1
    FEED_8_5  MARGIN  2
    FEED_8_5  CUT_lpg_5  -0.01328465882
    FEED_8_5  CUT_nap_5  -0.1164232941
    FEED_8_5  CUTS_nap_5  -0.01112963641
    FEED_8_5  CUT_ker_5  -0.1065693176
    FEED_8_5  CUTS_ker_5  -0.03056289808
    FEED_8_5  CUT_gso_5  -0.1865693176
    FEED_8_5  CUTS_gso_5  -0.2140240424
    FEED_8_5  CUT_vgo_5  -0.2445255686
    FEED_8_5  CUTS_vgo_5  -0.5610177637
    FEED_8_5  CUT_res_5  -0.3326278432
    FEED_8_5  CUTS_res_5  -1.589899591
    BUY_9_5  MARGIN  60.50770963
    BUY_9_5  LOTMIN_9_5  1
    BUY_9_5  LOTMAX_9_5  1
    BUY_9_5  CBAL_9_5  -1
    MARKER  'MARKER'  'INTORG'
    CARGO_9_5  MARGIN  1155.454687
    CARGO_9_5  LOTMIN_9_5  -150
    CARGO_9_5  LOTMAX_9_5  -600
    MARKER  'MARKER'  'INTEND'
    CINV_9_5  MARGIN  0.4
    CINV_9_5  CBAL_9_5  1
    CINV_9_5  CBAL_9_6  -1
    FEED_9_5  CBAL_9_5  1
    FEED_9_5  CDU_5  1
    FEED_9_5  MARGIN  2
    FEED_9_5  CUT_lpg_5  -0.01326285077
    FEED_9_5  CUT_nap_5  -0.1163142539
    FEED_9_5  CUTS_nap_5  -0.0157575203
    FEED_9_5  CUT_ker_5  -0.1065257015
    FEED_9_5  CUTS_ker_5  -0.04329428722
    FEED_9_5  CUT_gso_5  -0.1865257015
    FEED_9_5  CUTS_gso_5  -0.3032318841
    FEED_9_5  CUT_vgo_5  -0.2445619154
    FEED_9_5  CUTS_vgo_5  -0.7951608789
    FEED_9_5  CUT_res_5  -0.3328095769
    FEED_9_5  CUTS_res_5  -2.254346948
    BUY_10_5  MARGIN  72.07395902
    BUY_10_5  LOTMIN_10_5  1
    BUY_10_5  LOTMAX_10_5  1
    BUY_10_5  CBAL_10_5  -1
    MARKER  'MARKER'  'INTORG'
    CARGO_10_5  MARGIN  1902.460911
    CARGO_10_5  LOTMIN_10_5  -150
    CARGO_10_5  LOTMAX_10_5  -600
    MARKER  'MARKER'  'INTEND'
    CINV_10_5  MARGIN  0.4
    CINV_10_5  CBAL_10_5  1
    CINV_10_5  CBAL_10_6  -1
    FEED_10_5  CBAL_10_5  1
    FEED_10_5  CDU_5  1
    FEED_10_5  MARGIN  2
    FEED_10_5  CUT_lpg_5  -0.03393432573
    FEED_10_5  CUT_nap_5  -0.2196716287
    FEED_10_5  CUTS_nap_5  -0.01755328544
    FEED_10_5  CUT_ker_5  -0.1478686515
    FEED_10_5  CUTS_ker_5  -0.03544718993
    FEED_10_5  CUT_gso_5  -0.2278686515
    FEED_10_5  CUTS_gso_5  -0.2184994125
    FEED_10_5  CUT_vgo_5  -0.2101094571
    FEED_10_5  CUTS_vgo_5  -0.4029408402
    FEED_10_5  CUT_res_5  -0.1605472856
    FEED_10_5  CUTS_res_5  -0.6414420352
    BUY_11_5  MARGIN  72.70793959
    BUY_11_5  LOTMIN_11_5  1
    BUY_11_5  LOTMAX_11_5  1
    BUY_11_5  CBAL_11_5  -1
    MARKER  'MARKER'  'INTORG'
    CARGO_11_5  MARGIN  814.4164462
    CARGO_11_5  LOTMIN_11_5  -150
    CARGO_11_5  LOTMAX_11_5  -600
    MARKER  'MARKER'  'INTEND'
    CINV_11_5  MARGIN  0.4
    CINV_11_5  CBAL_11_5  1
    CINV_11_5  CBAL_11_6  -1
    FEED_11_5  CBAL_11_5  1
    FEED_11_5  CDU_5  1
    FEED_11_5  MARGIN  2
    FEED_11_5  CUT_lpg_5  -0.03231526356
    FEED_11_5  CUT_nap_5  -0.2115763178
    FEED_11_5  CUTS_nap_5  -0.01382544985
    FEED_11_5  CUT_ker_5  -0.1446305271
    FEED_11_5  CUTS_ker_5  -0.02835263588
    FEED_11_5  CUT_gso_5  -0.2246305271
    FEED_11_5  CUTS_gso_5  -0.1761417225
    FEED_11_5  CUT_vgo_5  -0.2128078941
    FEED_11_5  CUTS_vgo_5  -0.3337422523
    FEED_11_5  CUT_res_5  -0.1740394703
    FEED_11_5  CUTS_res_5  -0.5686302689
    SR_lpg_5  CUT_lpg_5  1
    SR_lpg_5  LPGP_5  1
    SRS_lpg_5  CUTS_lpg_5  1
    SRS_lpg_5  SULF_5  1
    SR_nap_5  CUT_nap_5  1
    SR_nap_5  NAP_5  1
    SRS_nap_5  CUTS_nap_5  1
    SRS_nap_5  SULF_5  1
    SR_ker_5  CUT_ker_5  1
    SR_ker_5  KER_5  1
    SRS_ker_5  CUTS_ker_5  1
    SRS_ker_5  SULF_5  1
    SR_gso_5  CUT_gso_5  1
    SR_gso_5  GSO_5  1
    SRS_gso_5  CUTS_gso_5  1
    SRS_gso_5  SULF_5  1
    SR_vgo_5  CUT_vgo_5  1
    SR_vgo_5  VGO_5  1
    SRS_vgo_5  CUTS_vgo_5  1
    SRS_vgo_5  SULF_5  1
    SR_res_5  CUT_res_5  1
    SR_res_5  RES_5  1
    SRS_res_5  CUTS_res_5  1
    SRS_res_5  SULF_5  1
    MARKER  'MARKER'  'INTORG'
    FCCON_5  MARGIN  3000
    FCCON_5  FCCMIN_5  -180
    FCCON_5  FCCMAX_5  -450
    MARKER  'MARKER'  'INTEND'
    FCCFEED_5  MARGIN  4
    FCCFEED_5  FCCMIN_5  1
    FCCFEED_5  FCCMAX_5  1
    FCCFEED_5  VGO_5  -1
    FCCFEED_5  GAS_5  0.55
    FCCFEED_5  GASOCT_5  2.75
    FCCFEED_5  DSL_5  0.3
    FCCFEED_5  FO_5  0.1
    FCCFEED_5  DSLS_5  0.24
    VGO2FO_5  VGO_5  -1
    VGO2FO_5  FO_5  1
    NAP2GAS_5  NAP_5  -1
    NAP2GAS_5  GAS_5  1
    NAP2GAS_5  GASOCT_5  -19
    NAP2FO_5  NAP_5  -1
    NAP2FO_5  FO_5  1
    KER2JET_5  KER_5  -1
    KER2JET_5  JET_5  1
    KER2JET_5  JETS_5  -0.05
    KER2DSL_5  KER_5  -1
    KER2DSL_5  DSL_5  1
    KER2DSL_5  DSLS_5  0.9
    GSO2DSL_5  GSO_5  -1
    GSO2DSL_5  DSL_5  1
    GSO2DSL_5  DSLS_5  1.4
    GSO2FO_5  GSO_5  -1
    GSO2FO_5  FO_5  1
    RES2FO_5  RES_5  -1
    RES2FO_5  FO_5  1
    PROD_lpg_5  LPGP_5  -1
    PROD_lpg_5  PBAL_lpg_5  1
    PROD_gas_5  GAS_5  -1
    PROD_gas_5  PBAL_gas_5  1
    PROD_jet_5  JET_5  -1
    PROD_jet_5  PBAL_jet_5  1
    PROD_dsl_5  DSL_5  -1
    PROD_dsl_5  DSLS_5  -1
    PROD_dsl_5  PBAL_dsl_5  1
    PROD_fo_5  FO_5  -1
    PROD_fo_5  PBAL_fo_5  1
    SELL_lpg_5  MARGIN  -60
    SELL_lpg_5  PBAL_lpg_5  -1
    PINV_lpg_5  MARGIN  0.8
    PINV_lpg_5  PBAL_lpg_5  -1
    PINV_lpg_5  PBAL_lpg_6  1
    SELL_gas_5  MARGIN  -105
    SELL_gas_5  PBAL_gas_5  -1
    PINV_gas_5  MARGIN  0.8
    PINV_gas_5  PBAL_gas_5  -1
    PINV_gas_5  PBAL_gas_6  1
    SELL_jet_5  MARGIN  -100
    SELL_jet_5  PBAL_jet_5  -1
    PINV_jet_5  MARGIN  0.8
    PINV_jet_5  PBAL_jet_5  -1
    PINV_jet_5  PBAL_jet_6  1
    SELL_dsl_5  MARGIN  -98
    SELL_dsl_5  PBAL_dsl_5  -1
    PINV_dsl_5  MARGIN  0.8
    PINV_dsl_5  PBAL_dsl_5  -1
    PINV_dsl_5  PBAL_dsl_6  1
    SELL_fo_5  MARGIN  -55
    SELL_fo_5  PBAL_fo_5  -1
    PINV_fo_5  MARGIN  0.8
    PINV_fo_5  PBAL_fo_5  -1
    PINV_fo_5  PBAL_fo_6  1
    BUY_0_6  MARGIN  62.43723806
    BUY_0_6  LOTMIN_0_6  1
    BUY_0_6  LOTMAX_0_6  1
    BUY_0_6  CBAL_0_6  -1
    MARKER  'MARKER'  'INTORG'
    CARGO_0_6  MARGIN  1233.617344
    CARGO_0_6  LOTMIN_0_6  -150
    CARGO_0_6  LOTMAX_0_6  -600
    MARKER  'MARKER'  'INTEND'
    CINV_0_6  MARGIN  0.4
    CINV_0_6  CBAL_0_6  1
    CINV_0_6  CBAL_0_7  -1
    FEED_0_6  CBAL_0_6  1
    FEED_0_6  CDU_6  1
    FEED_0_6  MARGIN  2
    FEED_0_6  CUT_lpg_6  -0.01403092732
    FEED_0_6  CUT_nap_6  -0.1201546366
    FEED_0_6  CUTS_nap_6  -0.01536512163
    FEED_0_6  CUT_ker_6  -0.1080618546
    FEED_0_6  CUTS_ker_6  -0.04145616649
    FEED_0_6  CUT_gso_6  -0.1880618546
    FEED_0_6  CUTS_gso_6  -0.2885874421
    FEED_0_6  CUT_vgo_6  -0.2432817878
    FEED_0_6  CUTS_vgo_6  -0.7466486916
    FEED_0_6  CUT_res_6  -0.326408939
    FEED_0_6  CUTS_res_6  -2.08702435
    BUY_1_6  MARGIN  62.98571642
    BUY_1_6  LOTMIN_1_6  1
    BUY_1_6  LOTMAX_1_6  1
    BUY_1_6  CBAL_1_6  -1
    MARKER  'MARKER'  'INTORG'
    CARGO_1_6  MARGIN  852.0029712
    CARGO_1_6  LOTMIN_1_6  -150
    CARGO_1_6  LOTMAX_1_6  -600
    MARKER  'MARKER'  'INTEND'
    CINV_1_6  MARGIN  0.4
    CINV_1_6  CBAL_1_6  1
    CINV_1_6  CBAL_1_7  -1
    FEED_1_6  CBAL_1_6  1
    FEED_1_6  CDU_6  1
    FEED_1_6  MARGIN  2
    FEED_1_6  CUT_lpg_6  -0.01686286664
    FEED_1_6  CUT_nap_6  -0.1343143332
    FEED_1_6  CUTS_nap_6  -0.01908126512
    FEED_1_6  CUT_ker_6  -0.1137257333
    FEED_1_6  CUTS_ker_6  -0.0484690833
    FEED_1_6  CUT_gso_6  -0.1937257333
    FEED_1_6  CUTS_gso_6  -0.330258014
    FEED_1_6  CUT_vgo_6  -0.2385618889
    FEED_1_6  CUTS_vgo_6  -0.8133867848
    FEED_1_6  CUT_res_6  -0.3028094447
    FEED_1_6  CUTS_res_6  -2.150919846
    BUY_2_6  MARGIN  66.0530987
    BUY_2_6  LOTMIN_2_6  1
    BUY_2_6  LOTMAX_2_6  1
    BUY_2_6  CBAL_2_6  -1
    MARKER  'MARKER'  'INTORG'
    CARGO_2_6  MARGIN  836.532499
    CARGO_2_6  LOTMIN_2_6  -150
    CARGO_2_6  LOTMAX_2_6  -600
    MARKER  'MARKER'  'INTEND'
    CINV_2_6  MARGIN  0.4
    CINV_2_6  CBAL_2_6  1
    CINV_2_6  CBAL_2_7  -1
    FEED_2_6  CBAL_2_6  1
    FEED_2_6  CDU_6  1
    FEED_2_6  MARGIN  2
    FEED_2_6  CUT_lpg_6  -0.01656343112
    FEED_2_6  CUT_nap_6  -0.1328171556
    FEED_2_6  CUTS_nap_6  -0.009515353406
    FEED_2_6  CUT_ker_6  -0.1131268622
    FEED_2_6  CUTS_ker_6  -0.02431407454
    FEED_2_6  CUT_gso_6  -0.1931268622
    FEED_2_6  CUTS_gso_6  -0.1660331006
    FEED_2_6  CUT_vgo_6  -0.2390609481
    FEED_2_6  CUTS_vgo_6  -0.41104619
    FEED_2_6  CUT_res_6  -0.3053047407
    FEED_2_6  CUTS_res_6  -1.093639783
    BUY_3_6  MARGIN  70.99835779
    BUY_3_6  LOTMIN_3_6  1
    BUY_3_6  LOTMAX_3_6  1
    BUY_3_6  CBAL_3_6  -1
    MARKER  'MARKER'  'INTORG'
    CARGO_3_6  MARGIN  1798.88703
    CARGO_3_6  LOTMIN_3_6  -150
    CARGO_3_6  LOTMAX_3_6  -600
    MARKER  'MARKER'  'INTEND'
    CINV_3_6  MARGIN  0.4
    CINV_3_6  CBAL_3_6  1
    CINV_3_6  CBAL_3_7  -1
    FEED_3_6  CBAL_3_6  1
    FEED_3_6  CDU_6  1
    FEED_3_6  MARGIN  2
    FEED_3_6  CUT_lpg_6  -0.0349010708
    FEED_3_6  CUT_nap_6  -0.224505354
    FEED_3_6  CUTS_nap_6  -0.0229431691
    FEED_3_6  CUT_ker_6  -0.1498021416
    FEED_3_6  CUTS_ker_6  -0.0459267782
    FEED_3_6  CUT_gso_6  -0.2298021416
    FEED_3_6  CUTS_gso_6  -0.2818136476
    FEED_3_6  CUT_vgo_6  -0.2084982153
    FEED_3_6  CUTS_vgo_6  -0.5113759357
    FEED_3_6  CUT_res_6  -0.1524910767
    FEED_3_6  CUTS_res_6  -0.7791859962
    BUY_4_6  MARGIN  69.03818729
    BUY_4_6  LOTMIN_4_6  1
    BUY_4_6  LOTMAX_4_6  1
    BUY_4_6  CBAL_4_6  -1
    MARKER  'MARKER'  'INTORG'
    CARGO_4_6  MARGIN  2123.352446
    CARGO_4_6  LOTMIN_4_6  -150
    CARGO_4_6  LOTMAX_4_6  -600
    MARKER  'MARKER'  'INTEND'
    CINV_4_6  MARGIN  0.4
    CINV_4_6  CBAL_4_6  1
    CINV_4_6  CBAL_4_7  -1
    FEED_4_6  CBAL_4_6  1
    FEED_4_6  CDU_6  1
    FEED_4_6  MARGIN  2
    FEED_4_6  CUT_lpg_6  -0.02124109062
    FEED_4_6  CUT_nap_6  -0.1562054531
    FEED_4_6  CUTS_nap_6  -0.01072341631
    FEED_4_6  CUT_ker_6  -0.1224821812
    FEED_4_6  CUTS_ker_6  -0.02522499812
    FEED_4_6  CUT_gso_6  -0.2024821812
    FEED_4_6  CUTS_gso_6  -0.1668034514
    FEED_4_6  CUT_vgo_6  -0.231264849
    FEED_4_6  CUTS_vgo_6  -0.3810288367
    FEED_4_6  CUT_res_6  -0.2663242449
    FEED_4_6  CUTS_res_6  -0.9141504649
    BUY_5_6  MARGIN  74.02787439
    BUY_5_6  LOTMIN_5_6  1
    BUY_5_6  LOTMAX_5_6  1
    BUY_5_6  CBAL_5_6  -1
    MARKER  'MARKER'  'INTORG'
    CARGO_5_6  MARGIN  1194.699418
    CARGO_5_6  LOTMIN_5_6  -150
    CARGO_5_6  LOTMAX_5_6  -600
    MARKER  'MARKER'  'INTEND'
    CINV_5_6  MARGIN  0.4
    CINV_5_6  CBAL_5_6  1
    CINV_5_6  CBAL_5_7  -1
    FEED_5_6  CBAL_5_6  1
    FEED_5_6  CDU_6  1
    FEED_5_6  MARGIN  2
    FEED_5_6  CUT_lpg_6  -0.03311569419
    FEED_5_6  CUT_nap_6  -0.215578471
    FEED_5_6  CUTS_nap_6  -0.0179457285
    FEED_5_6  CUT_ker_6  -0.1462313884
    FEED_5_6  CUTS_ker_6  -0.0365188896
    FEED_5_6  CUT_gso_6  -0.2262313884
    FEED_5_6  CUTS_gso_6  -0.2259903072
    FEED_5_6  CUT_vgo_6  -0.211473843
    FEED_5_6  CUTS_vgo_6  -0.4224969762
    FEED_5_6  CUT_res_6  -0.167369215
    FEED_5_6  CUTS_res_6  -0.6966285823
    BUY_6_6  MARGIN  73.53844218
    BUY_6_6  LOTMIN_6_6  1
    BUY_6_6  LOTMAX_6_6  1
    BUY_6_6  CBAL_6_6  -1
    MARKER  'MARKER'  'INTORG'
    CARGO_6_6  MARGIN  1524.354155
    CARGO_6_6  LOTMIN_6_6  -150
    CARGO_6_6  LOTMAX_6_6  -600
    MARKER  'MARKER'  'INTEND'
    CINV_6_6  MARGIN  0.4
    CINV_6_6  CBAL_6_6  1
    CINV_6_6  CBAL_6_7  -1
    FEED_6_6  CBAL_6_6  1
    FEED_6_6  CDU_6  1
    FEED_6_6  MARGIN  2
    FEED_6_6  CUT_lpg_6  -0.03427419703
    FEED_6_6  CUT_nap_6  -0.2213709851
    FEED_6_6  CUTS_nap_6  -0.0177558017
    FEED_6_6  CUT_ker_6  -0.1485483941
    FEED_6_6  CUTS_ker_6  -0.03574446524
    FEED_6_6  CUT_gso_6  -0.2285483941
    FEED_6_6  CUTS_gso_6  -0.219977878
    FEED_6_6  CUT_vgo_6  -0.209543005
    FEED_6_6  CUTS_vgo_6  -0.4033703739
    FEED_6_6  CUT_res_6  -0.1577150248
    FEED_6_6  CUTS_res_6  -0.6325031042
    BUY_7_6  MARGIN  65.98112648
    BUY_7_6  LOTMIN_7_6  1
    BUY_7_6  LOTMAX_7_6  1
    BUY_7_6  CBAL_7_6  -1
    MARKER  'MARKER'  'INTORG'
    CARGO_7_6  MARGIN  1793.58348
    CARGO_7_6  LOTMIN_7_6  -150
    CARGO_7_6  LOTMAX_7_6  -600
    MARKER  'MARKER'  'INTEND'
    CINV_7_6  MARGIN  0.4
    CINV_7_6  CBAL_7_6  1
    CINV_7_6  CBAL_7_7  -1
    FEED_7_6  CBAL_7_6  1
    FEED_7_6  CDU_6  1
    FEED_7_6  MARGIN  2
    FEED_7_6  CUT_lpg_6  -0.01083924952
    FEED_7_6  CUT_nap_6  -0.1041962476
    FEED_7_6  CUTS_nap_6  -0.003989958728
    FEED_7_6  CUT_ker_6  -0.101678499
    FEED_7_6  CUTS_ker_6  -0.01168064179
    FEED_7_6  CUT_gso_6  -0.181678499
    FEED_7_6  CUTS_gso_6  -0.08348358752
    FEED_7_6  CUT_vgo_6  -0.2486012508
    FEED_7_6  CUTS_vgo_6  -0.228470891
    FEED_7_6  CUT_res_6  -0.353006254
    FEED_7_6  CUTS_res_6  -0.6758786504
    BUY_8_6  MARGIN  63.04385081
    BUY_8_6  LOTMIN_8_6  1
    BUY_8_6  LOTMAX_8_6  1
    BUY_8_6  CBAL_8_6  -1
    MARKER  'MARKER'  'INTORG'
    CARGO_8_6  MARGIN  918.1761435
    CARGO_8_6  LOTMIN_8_6  -150
    CARGO_8_6  LOTMAX_8_6  -600
    MARKER  'MARKER'  'INTEND'
    CINV_8_6  MARGIN  0.4
    CINV_8_6  CBAL_8_6  1
    CINV_8_6  CBAL_8_7  -1
    FEED_8_6  CBAL_8_6  1
    FEED_8_6  CDU_6  1
    FEED_8_6  MARGIN  2
    FEED_8_6  CUT_lpg_6  -0.01328465882
    FEED_8_6  CUT_nap_6  -0.1164232941
    FEED_8_6  CUTS_nap_6  -0.01112963641
    FEED_8_6  CUT_ker_6  -0.1065693176
    FEED_8_6  CUTS_ker_6  -0.03056289808
    FEED_8_6  CUT_gso_6  -0.1865693176
    FEED_8_6  CUTS_gso_6  -0.2140240424
    FEED_8_6  CUT_vgo_6  -0.2445255686
    FEED_8_6  CUTS_vgo_6  -0.5610177637
    FEED_8_6  CUT_res_6  -0.3326278432
    FEED_8_6  CUTS_res_6  -1.589899591
    BUY_9_6  MARGIN  60.50770963
    BUY_9_6  LOTMIN_9_6  1
    BUY_9_6  LOTMAX_9_6  1
    BUY_9_6  CBAL_9_6  -1
    MARKER  'MARKER'  'INTORG'
    CARGO_9_6  MARGIN  1155.454687
    CARGO_9_6  LOTMIN_9_6  -150
    CARGO_9_6  LOTMAX_9_6  -600
    MARKER  'MARKER'  'INTEND'
    CINV_9_6  MARGIN  0.4
    CINV_9_6  CBAL_9_6  1
    CINV_9_6  CBAL_9_7  -1
    FEED_9_6  CBAL_9_6  1
    FEED_9_6  CDU_6  1
    FEED_9_6  MARGIN  2
    FEED_9_6  CUT_lpg_6  -0.01326285077
    FEED_9_6  CUT_nap_6  -0.1163142539
    FEED_9_6  CUTS_nap_6  -0.0157575203
    FEED_9_6  CUT_ker_6  -0.1065257015
    FEED_9_6  CUTS_ker_6  -0.04329428722
    FEED_9_6  CUT_gso_6  -0.1865257015
    FEED_9_6  CUTS_gso_6  -0.3032318841
    FEED_9_6  CUT_vgo_6  -0.2445619154
    FEED_9_6  CUTS_vgo_6  -0.7951608789
    FEED_9_6  CUT_res_6  -0.3328095769
    FEED_9_6  CUTS_res_6  -2.254346948
    BUY_10_6  MARGIN  72.07395902
    BUY_10_6  LOTMIN_10_6  1
    BUY_10_6  LOTMAX_10_6  1
    BUY_10_6  CBAL_10_6  -1
    MARKER  'MARKER'  'INTORG'
    CARGO_10_6  MARGIN  1902.460911
    CARGO_10_6  LOTMIN_10_6  -150
    CARGO_10_6  LOTMAX_10_6  -600
    MARKER  'MARKER'  'INTEND'
    CINV_10_6  MARGIN  0.4
    CINV_10_6  CBAL_10_6  1
    CINV_10_6  CBAL_10_7  -1
    FEED_10_6  CBAL_10_6  1
    FEED_10_6  CDU_6  1
    FEED_10_6  MARGIN  2
    FEED_10_6  CUT_lpg_6  -0.03393432573
    FEED_10_6  CUT_nap_6  -0.2196716287
    FEED_10_6  CUTS_nap_6  -0.01755328544
    FEED_10_6  CUT_ker_6  -0.1478686515
    FEED_10_6  CUTS_ker_6  -0.03544718993
    FEED_10_6  CUT_gso_6  -0.2278686515
    FEED_10_6  CUTS_gso_6  -0.2184994125
    FEED_10_6  CUT_vgo_6  -0.2101094571
    FEED_10_6  CUTS_vgo_6  -0.4029408402
    FEED_10_6  CUT_res_6  -0.1605472856
    FEED_10_6  CUTS_res_6  -0.6414420352
    BUY_11_6  MARGIN  72.70793959
    BUY_11_6  LOTMIN_11_6  1
    BUY_11_6  LOTMAX_11_6  1
    BUY_11_6  CBAL_11_6  -1
    MARKER  'MARKER'  'INTORG'
    CARGO_11_6  MARGIN  814.4164462
    CARGO_11_6  LOTMIN_11_6  -150
    CARGO_11_6  LOTMAX_11_6  -600
    MARKER  'MARKER'  'INTEND'
    CINV_11_6  MARGIN  0.4
    CINV_11_6  CBAL_11_6  1
    CINV_11_6  CBAL_11_7  -1
    FEED_11_6  CBAL_11_6  1
    FEED_11_6  CDU_6  1
    FEED_11_6  MARGIN  2
    FEED_11_6  CUT_lpg_6  -0.03231526356
    FEED_11_6  CUT_nap_6  -0.2115763178
    FEED_11_6  CUTS_nap_6  -0.01382544985
    FEED_11_6  CUT_ker_6  -0.1446305271
    FEED_11_6  CUTS_ker_6  -0.02835263588
    FEED_11_6  CUT_gso_6  -0.2246305271
    FEED_11_6  CUTS_gso_6  -0.1761417225
    FEED_11_6  CUT_vgo_6  -0.2128078941
    FEED_11_6  CUTS_vgo_6  -0.3337422523
    FEED_11_6  CUT_res_6  -0.1740394703
    FEED_11_6  CUTS_res_6  -0.5686302689
    SR_lpg_6  CUT_lpg_6  1
    SR_lpg_6  LPGP_6  1
    SRS_lpg_6  CUTS_lpg_6  1
    SRS_lpg_6  SULF_6  1
    SR_nap_6  CUT_nap_6  1
    SR_nap_6  NAP_6  1
    SRS_nap_6  CUTS_nap_6  1
    SRS_nap_6  SULF_6  1
    SR_ker_6  CUT_ker_6  1
    SR_ker_6  KER_6  1
    SRS_ker_6  CUTS_ker_6  1
    SRS_ker_6  SULF_6  1
    SR_gso_6  CUT_gso_6  1
    SR_gso_6  GSO_6  1
    SRS_gso_6  CUTS_gso_6  1
    SRS_gso_6  SULF_6  1
    SR_vgo_6  CUT_vgo_6  1
    SR_vgo_6  VGO_6  1
    SRS_vgo_6  CUTS_vgo_6  1
    SRS_vgo_6  SULF_6  1
    SR_res_6  CUT_res_6  1
    SR_res_6  RES_6  1
    SRS_res_6  CUTS_res_6  1
    SRS_res_6  SULF_6  1
    MARKER  'MARKER'  'INTORG'
    FCCON_6  MARGIN  3000
    FCCON_6  FCCMIN_6  -180
    FCCON_6  FCCMAX_6  -450
    MARKER  'MARKER'  'INTEND'
    FCCFEED_6  MARGIN  4
    FCCFEED_6  FCCMIN_6  1
    FCCFEED_6  FCCMAX_6  1
    FCCFEED_6  VGO_6  -1
    FCCFEED_6  GAS_6  0.55
    FCCFEED_6  GASOCT_6  2.75
    FCCFEED_6  DSL_6  0.3
    FCCFEED_6  FO_6  0.1
    FCCFEED_6  DSLS_6  0.24
    VGO2FO_6  VGO_6  -1
    VGO2FO_6  FO_6  1
    NAP2GAS_6  NAP_6  -1
    NAP2GAS_6  GAS_6  1
    NAP2GAS_6  GASOCT_6  -19
    NAP2FO_6  NAP_6  -1
    NAP2FO_6  FO_6  1
    KER2JET_6  KER_6  -1
    KER2JET_6  JET_6  1
    KER2JET_6  JETS_6  -0.05
    KER2DSL_6  KER_6  -1
    KER2DSL_6  DSL_6  1
    KER2DSL_6  DSLS_6  0.9
    GSO2DSL_6  GSO_6  -1
    GSO2DSL_6  DSL_6  1
    GSO2DSL_6  DSLS_6  1.4
    GSO2FO_6  GSO_6  -1
    GSO2FO_6  FO_6  1
    RES2FO_6  RES_6  -1
    RES2FO_6  FO_6  1
    PROD_lpg_6  LPGP_6  -1
    PROD_lpg_6  PBAL_lpg_6  1
    PROD_gas_6  GAS_6  -1
    PROD_gas_6  PBAL_gas_6  1
    PROD_jet_6  JET_6  -1
    PROD_jet_6  PBAL_jet_6  1
    PROD_dsl_6  DSL_6  -1
    PROD_dsl_6  DSLS_6  -1
    PROD_dsl_6  PBAL_dsl_6  1
    PROD_fo_6  FO_6  -1
    PROD_fo_6  PBAL_fo_6  1
    SELL_lpg_6  MARGIN  -60
    SELL_lpg_6  PBAL_lpg_6  -1
    PINV_lpg_6  MARGIN  0.8
    PINV_lpg_6  PBAL_lpg_6  -1
    PINV_lpg_6  PBAL_lpg_7  1
    SELL_gas_6  MARGIN  -105
    SELL_gas_6  PBAL_gas_6  -1
    PINV_gas_6  MARGIN  0.8
    PINV_gas_6  PBAL_gas_6  -1
    PINV_gas_6  PBAL_gas_7  1
    SELL_jet_6  MARGIN  -100
    SELL_jet_6  PBAL_jet_6  -1
    PINV_jet_6  MARGIN  0.8
    PINV_jet_6  PBAL_jet_6  -1
    PINV_jet_6  PBAL_jet_7  1
    SELL_dsl_6  MARGIN  -98
    SELL_dsl_6  PBAL_dsl_6  -1
    PINV_dsl_6  MARGIN  0.8
    PINV_dsl_6  PBAL_dsl_6  -1
    PINV_dsl_6  PBAL_dsl_7  1
    SELL_fo_6  MARGIN  -55
    SELL_fo_6  PBAL_fo_6  -1
    PINV_fo_6  MARGIN  0.8
    PINV_fo_6  PBAL_fo_6  -1
    PINV_fo_6  PBAL_fo_7  1
    BUY_0_7  MARGIN  62.43723806
    BUY_0_7  LOTMIN_0_7  1
    BUY_0_7  LOTMAX_0_7  1
    BUY_0_7  CBAL_0_7  -1
    MARKER  'MARKER'  'INTORG'
    CARGO_0_7  MARGIN  1233.617344
    CARGO_0_7  LOTMIN_0_7  -150
    CARGO_0_7  LOTMAX_0_7  -600
    MARKER  'MARKER'  'INTEND'
    CINV_0_7  MARGIN  0.4
    CINV_0_7  CBAL_0_7  1
    CINV_0_7  CBAL_0_8  -1
    FEED_0_7  CBAL_0_7  1
    FEED_0_7  CDU_7  1
    FEED_0_7  MARGIN  2
    FEED_0_7  CUT_lpg_7  -0.01403092732
    FEED_0_7  CUT_nap_7  -0.1201546366
    FEED_0_7  CUTS_nap_7  -0.01536512163
    FEED_0_7  CUT_ker_7  -0.1080618546
    FEED_0_7  CUTS_ker_7  -0.04145616649
    FEED_0_7  CUT_gso_7  -0.1880618546
    FEED_0_7  CUTS_gso_7  -0.2885874421
    FEED_0_7  CUT_vgo_7  -0.2432817878
    FEED_0_7  CUTS_vgo_7  -0.7466486916
    FEED_0_7  CUT_res_7  -0.326408939
    FEED_0_7  CUTS_res_7  -2.08702435
    BUY_1_7  MARGIN  62.98571642
    BUY_1_7  LOTMIN_1_7  1
    BUY_1_7  LOTMAX_1_7  1
    BUY_1_7  CBAL_1_7  -1
    MARKER  'MARKER'  'INTORG'
    CARGO_1_7  MARGIN  852.0029712
    CARGO_1_7  LOTMIN_1_7  -150
    CARGO_1_7  LOTMAX_1_7  -600
    MARKER  'MARKER'  'INTEND'
    CINV_1_7  MARGIN  0.4
    CINV_1_7  CBAL_1_7  1
    CINV_1_7  CBAL_1_8  -1
    FEED_1_7  CBAL_1_7  1
    FEED_1_7  CDU_7  1
    FEED_1_7  MARGIN  2
    FEED_1_7  CUT_lpg_7  -0.01686286664
    FEED_1_7  CUT_nap_7  -0.1343143332
    FEED_1_7  CUTS_nap_7  -0.01908126512
    FEED_1_7  CUT_ker_7  -0.1137257333
    FEED_1_7  CUTS_ker_7  -0.0484690833
    FEED_1_7  CUT_gso_7  -0.1937257333
    FEED_1_7  CUTS_gso_7  -0.330258014
    FEED_1_7  CUT_vgo_7  -0.2385618889
    FEED_1_7  CUTS_vgo_7  -0.8133867848
    FEED_1_7  CUT_res_7  -0.3028094447
    FEED_1_7  CUTS_res_7  -2.150919846
    BUY_2_7  MARGIN  66.0530987
    BUY_2_7  LOTMIN_2_7  1
    BUY_2_7  LOTMAX_2_7  1
    BUY_2_7  CBAL_2_7  -1
    MARKER  'MARKER'  'INTORG'
    CARGO_2_7  MARGIN  836.532499
    CARGO_2_7  LOTMIN_2_7  -150
    CARGO_2_7  LOTMAX_2_7  -600
    MARKER  'MARKER'  'INTEND'
    CINV_2_7  MARGIN  0.4
    CINV_2_7  CBAL_2_7  1
    CINV_2_7  CBAL_2_8  -1
    FEED_2_7  CBAL_2_7  1
    FEED_2_7  CDU_7  1
    FEED_2_7  MARGIN  2
    FEED_2_7  CUT_lpg_7  -0.01656343112
    FEED_2_7  CUT_nap_7  -0.1328171556
    FEED_2_7  CUTS_nap_7  -0.009515353406
    FEED_2_7  CUT_ker_7  -0.1131268622
    FEED_2_7  CUTS_ker_7  -0.02431407454
    FEED_2_7  CUT_gso_7  -0.1931268622
    FEED_2_7  CUTS_gso_7  -0.1660331006
    FEED_2_7  CUT_vgo_7  -0.2390609481
    FEED_2_7  CUTS_vgo_7  -0.41104619
    FEED_2_7  CUT_res_7  -0.3053047407
    FEED_2_7  CUTS_res_7  -1.093639783
    BUY_3_7  MARGIN  70.99835779
    BUY_3_7  LOTMIN_3_7  1
    BUY_3_7  LOTMAX_3_7  1
    BUY_3_7  CBAL_3_7  -1
    MARKER  'MARKER'  'INTORG'
    CARGO_3_7  MARGIN  1798.88703
    CARGO_3_7  LOTMIN_3_7  -150
    CARGO_3_7  LOTMAX_3_7  -600
    MARKER  'MARKER'  'INTEND'
    CINV_3_7  MARGIN  0.4
    CINV_3_7  CBAL_3_7  1
    CINV_3_7  CBAL_3_8  -1
    FEED_3_7  CBAL_3_7  1
    FEED_3_7  CDU_7  1
    FEED_3_7  MARGIN  2
    FEED_3_7  CUT_lpg_7  -0.0349010708
    FEED_3_7  CUT_nap_7  -0.224505354
    FEED_3_7  CUTS_nap_7  -0.0229431691
    FEED_3_7  CUT_ker_7  -0.1498021416
    FEED_3_7  CUTS_ker_7  -0.0459267782
    FEED_3_7  CUT_gso_7  -0.2298021416
    FEED_3_7  CUTS_gso_7  -0.2818136476
    FEED_3_7  CUT_vgo_7  -0.2084982153
    FEED_3_7  CUTS_vgo_7  -0.5113759357
    FEED_3_7  CUT_res_7  -0.1524910767
    FEED_3_7  CUTS_res_7  -0.7791859962
    BUY_4_7  MARGIN  69.03818729
    BUY_4_7  LOTMIN_4_7  1
    BUY_4_7  LOTMAX_4_7  1
    BUY_4_7  CBAL_4_7  -1
    MARKER  'MARKER'  'INTORG'
    CARGO_4_7  MARGIN  2123.352446
    CARGO_4_7  LOTMIN_4_7  -150
    CARGO_4_7  LOTMAX_4_7  -600
    MARKER  'MARKER'  'INTEND'
    CINV_4_7  MARGIN  0.4
    CINV_4_7  CBAL_4_7  1
    CINV_4_7  CBAL_4_8  -1
    FEED_4_7  CBAL_4_7  1
    FEED_4_7  CDU_7  1
    FEED_4_7  MARGIN  2
    FEED_4_7  CUT_lpg_7  -0.02124109062
    FEED_4_7  CUT_nap_7  -0.1562054531
    FEED_4_7  CUTS_nap_7  -0.01072341631
    FEED_4_7  CUT_ker_7  -0.1224821812
    FEED_4_7  CUTS_ker_7  -0.02522499812
    FEED_4_7  CUT_gso_7  -0.2024821812
    FEED_4_7  CUTS_gso_7  -0.1668034514
    FEED_4_7  CUT_vgo_7  -0.231264849
    FEED_4_7  CUTS_vgo_7  -0.3810288367
    FEED_4_7  CUT_res_7  -0.2663242449
    FEED_4_7  CUTS_res_7  -0.9141504649
    BUY_5_7  MARGIN  74.02787439
    BUY_5_7  LOTMIN_5_7  1
    BUY_5_7  LOTMAX_5_7  1
    BUY_5_7  CBAL_5_7  -1
    MARKER  'MARKER'  'INTORG'
    CARGO_5_7  MARGIN  1194.699418
    CARGO_5_7  LOTMIN_5_7  -150
    CARGO_5_7  LOTMAX_5_7  -600
    MARKER  'MARKER'  'INTEND'
    CINV_5_7  MARGIN  0.4
    CINV_5_7  CBAL_5_7  1
    CINV_5_7  CBAL_5_8  -1
    FEED_5_7  CBAL_5_7  1
    FEED_5_7  CDU_7  1
    FEED_5_7  MARGIN  2
    FEED_5_7  CUT_lpg_7  -0.03311569419
    FEED_5_7  CUT_nap_7  -0.215578471
    FEED_5_7  CUTS_nap_7  -0.0179457285
    FEED_5_7  CUT_ker_7  -0.1462313884
    FEED_5_7  CUTS_ker_7  -0.0365188896
    FEED_5_7  CUT_gso_7  -0.2262313884
    FEED_5_7  CUTS_gso_7  -0.2259903072
    FEED_5_7  CUT_vgo_7  -0.211473843
    FEED_5_7  CUTS_vgo_7  -0.4224969762
    FEED_5_7  CUT_res_7  -0.167369215
    FEED_5_7  CUTS_res_7  -0.6966285823
    BUY_6_7  MARGIN  73.53844218
    BUY_6_7  LOTMIN_6_7  1
    BUY_6_7  LOTMAX_6_7  1
    BUY_6_7  CBAL_6_7  -1
    MARKER  'MARKER'  'INTORG'
    CARGO_6_7  MARGIN  1524.354155
    CARGO_6_7  LOTMIN_6_7  -150
    CARGO_6_7  LOTMAX_6_7  -600
    MARKER  'MARKER'  'INTEND'
    CINV_6_7  MARGIN  0.4
    CINV_6_7  CBAL_6_7  1
    CINV_6_7  CBAL_6_8  -1
    FEED_6_7  CBAL_6_7  1
    FEED_6_7  CDU_7  1
    FEED_6_7  MARGIN  2
    FEED_6_7  CUT_lpg_7  -0.03427419703
    FEED_6_7  CUT_nap_7  -0.2213709851
    FEED_6_7  CUTS_nap_7  -0.0177558017
    FEED_6_7  CUT_ker_7  -0.1485483941
    FEED_6_7  CUTS_ker_7  -0.03574446524
    FEED_6_7  CUT_gso_7  -0.2285483941
    FEED_6_7  CUTS_gso_7  -0.219977878
    FEED_6_7  CUT_vgo_7  -0.209543005
    FEED_6_7  CUTS_vgo_7  -0.4033703739
    FEED_6_7  CUT_res_7  -0.1577150248
    FEED_6_7  CUTS_res_7  -0.6325031042
    BUY_7_7  MARGIN  65.98112648
    BUY_7_7  LOTMIN_7_7  1
    BUY_7_7  LOTMAX_7_7  1
    BUY_7_7  CBAL_7_7  -1
    MARKER  'MARKER'  'INTORG'
    CARGO_7_7  MARGIN  1793.58348
    CARGO_7_7  LOTMIN_7_7  -150
    CARGO_7_7  LOTMAX_7_7  -600
    MARKER  'MARKER'  'INTEND'
    CINV_7_7  MARGIN  0.4
    CINV_7_7  CBAL_7_7  1
    CINV_7_7  CBAL_7_8  -1
    FEED_7_7  CBAL_7_7  1
    FEED_7_7  CDU_7  1
    FEED_7_7  MARGIN  2
    FEED_7_7  CUT_lpg_7  -0.01083924952
    FEED_7_7  CUT_nap_7  -0.1041962476
    FEED_7_7  CUTS_nap_7  -0.003989958728
    FEED_7_7  CUT_ker_7  -0.101678499
    FEED_7_7  CUTS_ker_7  -0.01168064179
    FEED_7_7  CUT_gso_7  -0.181678499
    FEED_7_7  CUTS_gso_7  -0.08348358752
    FEED_7_7  CUT_vgo_7  -0.2486012508
    FEED_7_7  CUTS_vgo_7  -0.228470891
    FEED_7_7  CUT_res_7  -0.353006254
    FEED_7_7  CUTS_res_7  -0.6758786504
    BUY_8_7  MARGIN  63.04385081
    BUY_8_7  LOTMIN_8_7  1
    BUY_8_7  LOTMAX_8_7  1
    BUY_8_7  CBAL_8_7  -1
    MARKER  'MARKER'  'INTORG'
    CARGO_8_7  MARGIN  918.1761435
    CARGO_8_7  LOTMIN_8_7  -150
    CARGO_8_7  LOTMAX_8_7  -600
    MARKER  'MARKER'  'INTEND'
    CINV_8_7  MARGIN  0.4
    CINV_8_7  CBAL_8_7  1
    CINV_8_7  CBAL_8_8  -1
    FEED_8_7  CBAL_8_7  1
    FEED_8_7  CDU_7  1
    FEED_8_7  MARGIN  2
    FEED_8_7  CUT_lpg_7  -0.01328465882
    FEED_8_7  CUT_nap_7  -0.1164232941
    FEED_8_7  CUTS_nap_7  -0.01112963641
    FEED_8_7  CUT_ker_7  -0.1065693176
    FEED_8_7  CUTS_ker_7  -0.03056289808
    FEED_8_7  CUT_gso_7  -0.1865693176
    FEED_8_7  CUTS_gso_7  -0.2140240424
    FEED_8_7  CUT_vgo_7  -0.2445255686
    FEED_8_7  CUTS_vgo_7  -0.5610177637
    FEED_8_7  CUT_res_7  -0.3326278432
    FEED_8_7  CUTS_res_7  -1.589899591
    BUY_9_7  MARGIN  60.50770963
    BUY_9_7  LOTMIN_9_7  1
    BUY_9_7  LOTMAX_9_7  1
    BUY_9_7  CBAL_9_7  -1
    MARKER  'MARKER'  'INTORG'
    CARGO_9_7  MARGIN  1155.454687
    CARGO_9_7  LOTMIN_9_7  -150
    CARGO_9_7  LOTMAX_9_7  -600
    MARKER  'MARKER'  'INTEND'
    CINV_9_7  MARGIN  0.4
    CINV_9_7  CBAL_9_7  1
    CINV_9_7  CBAL_9_8  -1
    FEED_9_7  CBAL_9_7  1
    FEED_9_7  CDU_7  1
    FEED_9_7  MARGIN  2
    FEED_9_7  CUT_lpg_7  -0.01326285077
    FEED_9_7  CUT_nap_7  -0.1163142539
    FEED_9_7  CUTS_nap_7  -0.0157575203
    FEED_9_7  CUT_ker_7  -0.1065257015
    FEED_9_7  CUTS_ker_7  -0.04329428722
    FEED_9_7  CUT_gso_7  -0.1865257015
    FEED_9_7  CUTS_gso_7  -0.3032318841
    FEED_9_7  CUT_vgo_7  -0.2445619154
    FEED_9_7  CUTS_vgo_7  -0.7951608789
    FEED_9_7  CUT_res_7  -0.3328095769
    FEED_9_7  CUTS_res_7  -2.254346948
    BUY_10_7  MARGIN  72.07395902
    BUY_10_7  LOTMIN_10_7  1
    BUY_10_7  LOTMAX_10_7  1
    BUY_10_7  CBAL_10_7  -1
    MARKER  'MARKER'  'INTORG'
    CARGO_10_7  MARGIN  1902.460911
    CARGO_10_7  LOTMIN_10_7  -150
    CARGO_10_7  LOTMAX_10_7  -600
    MARKER  'MARKER'  'INTEND'
    CINV_10_7  MARGIN  0.4
    CINV_10_7  CBAL_10_7  1
    CINV_10_7  CBAL_10_8  -1
    FEED_10_7  CBAL_10_7  1
    FEED_10_7  CDU_7  1
    FEED_10_7  MARGIN  2
    FEED_10_7  CUT_lpg_7  -0.03393432573
    FEED_10_7  CUT_nap_7  -0.2196716287
    FEED_10_7  CUTS_nap_7  -0.01755328544
    FEED_10_7  CUT_ker_7  -0.1478686515
    FEED_10_7  CUTS_ker_7  -0.03544718993
    FEED_10_7  CUT_gso_7  -0.2278686515
    FEED_10_7  CUTS_gso_7  -0.2184994125
    FEED_10_7  CUT_vgo_7  -0.2101094571
    FEED_10_7  CUTS_vgo_7  -0.4029408402
    FEED_10_7  CUT_res_7  -0.1605472856
    FEED_10_7  CUTS_res_7  -0.6414420352
    BUY_11_7  MARGIN  72.70793959
    BUY_11_7  LOTMIN_11_7  1
    BUY_11_7  LOTMAX_11_7  1
    BUY_11_7  CBAL_11_7  -1
    MARKER  'MARKER'  'INTORG'
    CARGO_11_7  MARGIN  814.4164462
    CARGO_11_7  LOTMIN_11_7  -150
    CARGO_11_7  LOTMAX_11_7  -600
    MARKER  'MARKER'  'INTEND'
    CINV_11_7  MARGIN  0.4
    CINV_11_7  CBAL_11_7  1
    CINV_11_7  CBAL_11_8  -1
    FEED_11_7  CBAL_11_7  1
    FEED_11_7  CDU_7  1
    FEED_11_7  MARGIN  2
    FEED_11_7  CUT_lpg_7  -0.03231526356
    FEED_11_7  CUT_nap_7  -0.2115763178
    FEED_11_7  CUTS_nap_7  -0.01382544985
    FEED_11_7  CUT_ker_7  -0.1446305271
    FEED_11_7  CUTS_ker_7  -0.02835263588
    FEED_11_7  CUT_gso_7  -0.2246305271
    FEED_11_7  CUTS_gso_7  -0.1761417225
    FEED_11_7  CUT_vgo_7  -0.2128078941
    FEED_11_7  CUTS_vgo_7  -0.3337422523
    FEED_11_7  CUT_res_7  -0.1740394703
    FEED_11_7  CUTS_res_7  -0.5686302689
    SR_lpg_7  CUT_lpg_7  1
    SR_lpg_7  LPGP_7  1
    SRS_lpg_7  CUTS_lpg_7  1
    SRS_lpg_7  SULF_7  1
    SR_nap_7  CUT_nap_7  1
    SR_nap_7  NAP_7  1
    SRS_nap_7  CUTS_nap_7  1
    SRS_nap_7  SULF_7  1
    SR_ker_7  CUT_ker_7  1
    SR_ker_7  KER_7  1
    SRS_ker_7  CUTS_ker_7  1
    SRS_ker_7  SULF_7  1
    SR_gso_7  CUT_gso_7  1
    SR_gso_7  GSO_7  1
    SRS_gso_7  CUTS_gso_7  1
    SRS_gso_7  SULF_7  1
    SR_vgo_7  CUT_vgo_7  1
    SR_vgo_7  VGO_7  1
    SRS_vgo_7  CUTS_vgo_7  1
    SRS_vgo_7  SULF_7  1
    SR_res_7  CUT_res_7  1
    SR_res_7  RES_7  1
    SRS_res_7  CUTS_res_7  1
    SRS_res_7  SULF_7  1
    MARKER  'MARKER'  'INTORG'
    FCCON_7  MARGIN  3000
    FCCON_7  FCCMIN_7  -180
    FCCON_7  FCCMAX_7  -450
    MARKER  'MARKER'  'INTEND'
    FCCFEED_7  MARGIN  4
    FCCFEED_7  FCCMIN_7  1
    FCCFEED_7  FCCMAX_7  1
    FCCFEED_7  VGO_7  -1
    FCCFEED_7  GAS_7  0.55
    FCCFEED_7  GASOCT_7  2.75
    FCCFEED_7  DSL_7  0.3
    FCCFEED_7  FO_7  0.1
    FCCFEED_7  DSLS_7  0.24
    VGO2FO_7  VGO_7  -1
    VGO2FO_7  FO_7  1
    NAP2GAS_7  NAP_7  -1
    NAP2GAS_7  GAS_7  1
    NAP2GAS_7  GASOCT_7  -19
    NAP2FO_7  NAP_7  -1
    NAP2FO_7  FO_7  1
    KER2JET_7  KER_7  -1
    KER2JET_7  JET_7  1
    KER2JET_7  JETS_7  -0.05
    KER2DSL_7  KER_7  -1
    KER2DSL_7  DSL_7  1
    KER2DSL_7  DSLS_7  0.9
    GSO2DSL_7  GSO_7  -1
    GSO2DSL_7  DSL_7  1
    GSO2DSL_7  DSLS_7  1.4
    GSO2FO_7  GSO_7  -1
    GSO2FO_7  FO_7  1
    RES2FO_7  RES_7  -1
    RES2FO_7  FO_7  1
    PROD_lpg_7  LPGP_7  -1
    PROD_lpg_7  PBAL_lpg_7  1
    PROD_gas_7  GAS_7  -1
    PROD_gas_7  PBAL_gas_7  1
    PROD_jet_7  JET_7  -1
    PROD_jet_7  PBAL_jet_7  1
    PROD_dsl_7  DSL_7  -1
    PROD_dsl_7  DSLS_7  -1
    PROD_dsl_7  PBAL_dsl_7  1
    PROD_fo_7  FO_7  -1
    PROD_fo_7  PBAL_fo_7  1
    SELL_lpg_7  MARGIN  -60
    SELL_lpg_7  PBAL_lpg_7  -1
    PINV_lpg_7  MARGIN  0.8
    PINV_lpg_7  PBAL_lpg_7  -1
    PINV_lpg_7  PBAL_lpg_8  1
    SELL_gas_7  MARGIN  -105
    SELL_gas_7  PBAL_gas_7  -1
    PINV_gas_7  MARGIN  0.8
    PINV_gas_7  PBAL_gas_7  -1
    PINV_gas_7  PBAL_gas_8  1
    SELL_jet_7  MARGIN  -100
    SELL_jet_7  PBAL_jet_7  -1
    PINV_jet_7  MARGIN  0.8
    PINV_jet_7  PBAL_jet_7  -1
    PINV_jet_7  PBAL_jet_8  1
    SELL_dsl_7  MARGIN  -98
    SELL_dsl_7  PBAL_dsl_7  -1
    PINV_dsl_7  MARGIN  0.8
    PINV_dsl_7  PBAL_dsl_7  -1
    PINV_dsl_7  PBAL_dsl_8  1
    SELL_fo_7  MARGIN  -55
    SELL_fo_7  PBAL_fo_7  -1
    PINV_fo_7  MARGIN  0.8
    PINV_fo_7  PBAL_fo_7  -1
    PINV_fo_7  PBAL_fo_8  1
    BUY_0_8  MARGIN  62.43723806
    BUY_0_8  LOTMIN_0_8  1
    BUY_0_8  LOTMAX_0_8  1
    BUY_0_8  CBAL_0_8  -1
    MARKER  'MARKER'  'INTORG'
    CARGO_0_8  MARGIN  1233.617344
    CARGO_0_8  LOTMIN_0_8  -150
    CARGO_0_8  LOTMAX_0_8  -600
    MARKER  'MARKER'  'INTEND'
    CINV_0_8  MARGIN  0.4
    CINV_0_8  CBAL_0_8  1
    CINV_0_8  CBAL_0_9  -1
    FEED_0_8  CBAL_0_8  1
    FEED_0_8  CDU_8  1
    FEED_0_8  MARGIN  2
    FEED_0_8  CUT_lpg_8  -0.01403092732
    FEED_0_8  CUT_nap_8  -0.1201546366
    FEED_0_8  CUTS_nap_8  -0.01536512163
    FEED_0_8  CUT_ker_8  -0.1080618546
    FEED_0_8  CUTS_ker_8  -0.04145616649
    FEED_0_8  CUT_gso_8  -0.1880618546
    FEED_0_8  CUTS_gso_8  -0.2885874421
    FEED_0_8  CUT_vgo_8  -0.2432817878
    FEED_0_8  CUTS_vgo_8  -0.7466486916
    FEED_0_8  CUT_res_8  -0.326408939
    FEED_0_8  CUTS_res_8  -2.08702435
    BUY_1_8  MARGIN  62.98571642
    BUY_1_8  LOTMIN_1_8  1
    BUY_1_8  LOTMAX_1_8  1
    BUY_1_8  CBAL_1_8  -1
    MARKER  'MARKER'  'INTORG'
    CARGO_1_8  MARGIN  852.0029712
    CARGO_1_8  LOTMIN_1_8  -150
    CARGO_1_8  LOTMAX_1_8  -600
    MARKER  'MARKER'  'INTEND'
    CINV_1_8  MARGIN  0.4
    CINV_1_8  CBAL_1_8  1
    CINV_1_8  CBAL_1_9  -1
    FEED_1_8  CBAL_1_8  1
    FEED_1_8  CDU_8  1
    FEED_1_8  MARGIN  2
    FEED_1_8  CUT_lpg_8  -0.01686286664
    FEED_1_8  CUT_nap_8  -0.1343143332
    FEED_1_8  CUTS_nap_8  -0.01908126512
    FEED_1_8  CUT_ker_8  -0.1137257333
    FEED_1_8  CUTS_ker_8  -0.0484690833
    FEED_1_8  CUT_gso_8  -0.1937257333
    FEED_1_8  CUTS_gso_8  -0.330258014
    FEED_1_8  CUT_vgo_8  -0.2385618889
    FEED_1_8  CUTS_vgo_8  -0.8133867848
    FEED_1_8  CUT_res_8  -0.3028094447
    FEED_1_8  CUTS_res_8  -2.150919846
    BUY_2_8  MARGIN  66.0530987
    BUY_2_8  LOTMIN_2_8  1
    BUY_2_8  LOTMAX_2_8  1
    BUY_2_8  CBAL_2_8  -1
    MARKER  'MARKER'  'INTORG'
    CARGO_2_8  MARGIN  836.532499
    CARGO_2_8  LOTMIN_2_8  -150
    CARGO_2_8  LOTMAX_2_8  -600
    MARKER  'MARKER'  'INTEND'
    CINV_2_8  MARGIN  0.4
    CINV_2_8  CBAL_2_8  1
    CINV_2_8  CBAL_2_9  -1
    FEED_2_8  CBAL_2_8  1
    FEED_2_8  CDU_8  1
    FEED_2_8  MARGIN  2
    FEED_2_8  CUT_lpg_8  -0.01656343112
    FEED_2_8  CUT_nap_8  -0.1328171556
    FEED_2_8  CUTS_nap_8  -0.009515353406
    FEED_2_8  CUT_ker_8  -0.1131268622
    FEED_2_8  CUTS_ker_8  -0.02431407454
    FEED_2_8  CUT_gso_8  -0.1931268622
    FEED_2_8  CUTS_gso_8  -0.1660331006
    FEED_2_8  CUT_vgo_8  -0.2390609481
    FEED_2_8  CUTS_vgo_8  -0.41104619
    FEED_2_8  CUT_res_8  -0.3053047407
    FEED_2_8  CUTS_res_8  -1.093639783
    BUY_3_8  MARGIN  70.99835779
    BUY_3_8  LOTMIN_3_8  1
    BUY_3_8  LOTMAX_3_8  1
    BUY_3_8  CBAL_3_8  -1
    MARKER  'MARKER'  'INTORG'
    CARGO_3_8  MARGIN  1798.88703
    CARGO_3_8  LOTMIN_3_8  -150
    CARGO_3_8  LOTMAX_3_8  -600
    MARKER  'MARKER'  'INTEND'
    CINV_3_8  MARGIN  0.4
    CINV_3_8  CBAL_3_8  1
    CINV_3_8  CBAL_3_9  -1
    FEED_3_8  CBAL_3_8  1
    FEED_3_8  CDU_8  1
    FEED_3_8  MARGIN  2
    FEED_3_8  CUT_lpg_8  -0.0349010708
    FEED_3_8  CUT_nap_8  -0.224505354
    FEED_3_8  CUTS_nap_8  -0.0229431691
    FEED_3_8  CUT_ker_8  -0.1498021416
    FEED_3_8  CUTS_ker_8  -0.0459267782
    FEED_3_8  CUT_gso_8  -0.2298021416
    FEED_3_8  CUTS_gso_8  -0.2818136476
    FEED_3_8  CUT_vgo_8  -0.2084982153
    FEED_3_8  CUTS_vgo_8  -0.5113759357
    FEED_3_8  CUT_res_8  -0.1524910767
    FEED_3_8  CUTS_res_8  -0.7791859962
    BUY_4_8  MARGIN  69.03818729
    BUY_4_8  LOTMIN_4_8  1
    BUY_4_8  LOTMAX_4_8  1
    BUY_4_8  CBAL_4_8  -1
    MARKER  'MARKER'  'INTORG'
    CARGO_4_8  MARGIN  2123.352446
    CARGO_4_8  LOTMIN_4_8  -150
    CARGO_4_8  LOTMAX_4_8  -600
    MARKER  'MARKER'  'INTEND'
    CINV_4_8  MARGIN  0.4
    CINV_4_8  CBAL_4_8  1
    CINV_4_8  CBAL_4_9  -1
    FEED_4_8  CBAL_4_8  1
    FEED_4_8  CDU_8  1
    FEED_4_8  MARGIN  2
    FEED_4_8  CUT_lpg_8  -0.02124109062
    FEED_4_8  CUT_nap_8  -0.1562054531
    FEED_4_8  CUTS_nap_8  -0.01072341631
    FEED_4_8  CUT_ker_8  -0.1224821812
    FEED_4_8  CUTS_ker_8  -0.02522499812
    FEED_4_8  CUT_gso_8  -0.2024821812
    FEED_4_8  CUTS_gso_8  -0.1668034514
    FEED_4_8  CUT_vgo_8  -0.231264849
    FEED_4_8  CUTS_vgo_8  -0.3810288367
    FEED_4_8  CUT_res_8  -0.2663242449
    FEED_4_8  CUTS_res_8  -0.9141504649
    BUY_5_8  MARGIN  74.02787439
    BUY_5_8  LOTMIN_5_8  1
    BUY_5_8  LOTMAX_5_8  1
    BUY_5_8  CBAL_5_8  -1
    MARKER  'MARKER'  'INTORG'
    CARGO_5_8  MARGIN  1194.699418
    CARGO_5_8  LOTMIN_5_8  -150
    CARGO_5_8  LOTMAX_5_8  -600
    MARKER  'MARKER'  'INTEND'
    CINV_5_8  MARGIN  0.4
    CINV_5_8  CBAL_5_8  1
    CINV_5_8  CBAL_5_9  -1
    FEED_5_8  CBAL_5_8  1
    FEED_5_8  CDU_8  1
    FEED_5_8  MARGIN  2
    FEED_5_8  CUT_lpg_8  -0.03311569419
    FEED_5_8  CUT_nap_8  -0.215578471
    FEED_5_8  CUTS_nap_8  -0.0179457285
    FEED_5_8  CUT_ker_8  -0.1462313884
    FEED_5_8  CUTS_ker_8  -0.0365188896
    FEED_5_8  CUT_gso_8  -0.2262313884
    FEED_5_8  CUTS_gso_8  -0.2259903072
    FEED_5_8  CUT_vgo_8  -0.211473843
    FEED_5_8  CUTS_vgo_8  -0.4224969762
    FEED_5_8  CUT_res_8  -0.167369215
    FEED_5_8  CUTS_res_8  -0.6966285823
    BUY_6_8  MARGIN  73.53844218
    BUY_6_8  LOTMIN_6_8  1
    BUY_6_8  LOTMAX_6_8  1
    BUY_6_8  CBAL_6_8  -1
    MARKER  'MARKER'  'INTORG'
    CARGO_6_8  MARGIN  1524.354155
    CARGO_6_8  LOTMIN_6_8  -150
    CARGO_6_8  LOTMAX_6_8  -600
    MARKER  'MARKER'  'INTEND'
    CINV_6_8  MARGIN  0.4
    CINV_6_8  CBAL_6_8  1
    CINV_6_8  CBAL_6_9  -1
    FEED_6_8  CBAL_6_8  1
    FEED_6_8  CDU_8  1
    FEED_6_8  MARGIN  2
    FEED_6_8  CUT_lpg_8  -0.03427419703
    FEED_6_8  CUT_nap_8  -0.2213709851
    FEED_6_8  CUTS_nap_8  -0.0177558017
    FEED_6_8  CUT_ker_8  -0.1485483941
    FEED_6_8  CUTS_ker_8  -0.03574446524
    FEED_6_8  CUT_gso_8  -0.2285483941
    FEED_6_8  CUTS_gso_8  -0.219977878
    FEED_6_8  CUT_vgo_8  -0.209543005
    FEED_6_8  CUTS_vgo_8  -0.4033703739
    FEED_6_8  CUT_res_8  -0.1577150248
    FEED_6_8  CUTS_res_8  -0.6325031042
    BUY_7_8  MARGIN  65.98112648
    BUY_7_8  LOTMIN_7_8  1
    BUY_7_8  LOTMAX_7_8  1
    BUY_7_8  CBAL_7_8  -1
    MARKER  'MARKER'  'INTORG'
    CARGO_7_8  MARGIN  1793.58348
    CARGO_7_8  LOTMIN_7_8  -150
    CARGO_7_8  LOTMAX_7_8  -600
    MARKER  'MARKER'  'INTEND'
    CINV_7_8  MARGIN  0.4
    CINV_7_8  CBAL_7_8  1
    CINV_7_8  CBAL_7_9  -1
    FEED_7_8  CBAL_7_8  1
    FEED_7_8  CDU_8  1
    FEED_7_8  MARGIN  2
    FEED_7_8  CUT_lpg_8  -0.01083924952
    FEED_7_8  CUT_nap_8  -0.1041962476
    FEED_7_8  CUTS_nap_8  -0.003989958728
    FEED_7_8  CUT_ker_8  -0.101678499
    FEED_7_8  CUTS_ker_8  -0.01168064179
    FEED_7_8  CUT_gso_8  -0.181678499
    FEED_7_8  CUTS_gso_8  -0.08348358752
    FEED_7_8  CUT_vgo_8  -0.2486012508
    FEED_7_8  CUTS_vgo_8  -0.228470891
    FEED_7_8  CUT_res_8  -0.353006254
    FEED_7_8  CUTS_res_8  -0.6758786504
    BUY_8_8  MARGIN  63.04385081
    BUY_8_8  LOTMIN_8_8  1
    BUY_8_8  LOTMAX_8_8  1
    BUY_8_8  CBAL_8_8  -1
    MARKER  'MARKER'  'INTORG'
    CARGO_8_8  MARGIN  918.1761435
    CARGO_8_8  LOTMIN_8_8  -150
    CARGO_8_8  LOTMAX_8_8  -600
    MARKER  'MARKER'  'INTEND'
    CINV_8_8  MARGIN  0.4
    CINV_8_8  CBAL_8_8  1
    CINV_8_8  CBAL_8_9  -1
    FEED_8_8  CBAL_8_8  1
    FEED_8_8  CDU_8  1
    FEED_8_8  MARGIN  2
    FEED_8_8  CUT_lpg_8  -0.01328465882
    FEED_8_8  CUT_nap_8  -0.1164232941
    FEED_8_8  CUTS_nap_8  -0.01112963641
    FEED_8_8  CUT_ker_8  -0.1065693176
    FEED_8_8  CUTS_ker_8  -0.03056289808
    FEED_8_8  CUT_gso_8  -0.1865693176
    FEED_8_8  CUTS_gso_8  -0.2140240424
    FEED_8_8  CUT_vgo_8  -0.2445255686
    FEED_8_8  CUTS_vgo_8  -0.5610177637
    FEED_8_8  CUT_res_8  -0.3326278432
    FEED_8_8  CUTS_res_8  -1.589899591
    BUY_9_8  MARGIN  60.50770963
    BUY_9_8  LOTMIN_9_8  1
    BUY_9_8  LOTMAX_9_8  1
    BUY_9_8  CBAL_9_8  -1
    MARKER  'MARKER'  'INTORG'
    CARGO_9_8  MARGIN  1155.454687
    CARGO_9_8  LOTMIN_9_8  -150
    CARGO_9_8  LOTMAX_9_8  -600
    MARKER  'MARKER'  'INTEND'
    CINV_9_8  MARGIN  0.4
    CINV_9_8  CBAL_9_8  1
    CINV_9_8  CBAL_9_9  -1
    FEED_9_8  CBAL_9_8  1
    FEED_9_8  CDU_8  1
    FEED_9_8  MARGIN  2
    FEED_9_8  CUT_lpg_8  -0.01326285077
    FEED_9_8  CUT_nap_8  -0.1163142539
    FEED_9_8  CUTS_nap_8  -0.0157575203
    FEED_9_8  CUT_ker_8  -0.1065257015
    FEED_9_8  CUTS_ker_8  -0.04329428722
    FEED_9_8  CUT_gso_8  -0.1865257015
    FEED_9_8  CUTS_gso_8  -0.3032318841
    FEED_9_8  CUT_vgo_8  -0.2445619154
    FEED_9_8  CUTS_vgo_8  -0.7951608789
    FEED_9_8  CUT_res_8  -0.3328095769
    FEED_9_8  CUTS_res_8  -2.254346948
    BUY_10_8  MARGIN  72.07395902
    BUY_10_8  LOTMIN_10_8  1
    BUY_10_8  LOTMAX_10_8  1
    BUY_10_8  CBAL_10_8  -1
    MARKER  'MARKER'  'INTORG'
    CARGO_10_8  MARGIN  1902.460911
    CARGO_10_8  LOTMIN_10_8  -150
    CARGO_10_8  LOTMAX_10_8  -600
    MARKER  'MARKER'  'INTEND'
    CINV_10_8  MARGIN  0.4
    CINV_10_8  CBAL_10_8  1
    CINV_10_8  CBAL_10_9  -1
    FEED_10_8  CBAL_10_8  1
    FEED_10_8  CDU_8  1
    FEED_10_8  MARGIN  2
    FEED_10_8  CUT_lpg_8  -0.03393432573
    FEED_10_8  CUT_nap_8  -0.2196716287
    FEED_10_8  CUTS_nap_8  -0.01755328544
    FEED_10_8  CUT_ker_8  -0.1478686515
    FEED_10_8  CUTS_ker_8  -0.03544718993
    FEED_10_8  CUT_gso_8  -0.2278686515
    FEED_10_8  CUTS_gso_8  -0.2184994125
    FEED_10_8  CUT_vgo_8  -0.2101094571
    FEED_10_8  CUTS_vgo_8  -0.4029408402
    FEED_10_8  CUT_res_8  -0.1605472856
    FEED_10_8  CUTS_res_8  -0.6414420352
    BUY_11_8  MARGIN  72.70793959
    BUY_11_8  LOTMIN_11_8  1
    BUY_11_8  LOTMAX_11_8  1
    BUY_11_8  CBAL_11_8  -1
    MARKER  'MARKER'  'INTORG'
    CARGO_11_8  MARGIN  814.4164462
    CARGO_11_8  LOTMIN_11_8  -150
    CARGO_11_8  LOTMAX_11_8  -600
    MARKER  'MARKER'  'INTEND'
    CINV_11_8  MARGIN  0.4
    CINV_11_8  CBAL_11_8  1
    CINV_11_8  CBAL_11_9  -1
    FEED_11_8  CBAL_11_8  1
    FEED_11_8  CDU_8  1
    FEED_11_8  MARGIN  2
    FEED_11_8  CUT_lpg_8  -0.03231526356
    FEED_11_8  CUT_nap_8  -0.2115763178
    FEED_11_8  CUTS_nap_8  -0.01382544985
    FEED_11_8  CUT_ker_8  -0.1446305271
    FEED_11_8  CUTS_ker_8  -0.02835263588
    FEED_11_8  CUT_gso_8  -0.2246305271
    FEED_11_8  CUTS_gso_8  -0.1761417225
    FEED_11_8  CUT_vgo_8  -0.2128078941
    FEED_11_8  CUTS_vgo_8  -0.3337422523
    FEED_11_8  CUT_res_8  -0.1740394703
    FEED_11_8  CUTS_res_8  -0.5686302689
    SR_lpg_8  CUT_lpg_8  1
    SR_lpg_8  LPGP_8  1
    SRS_lpg_8  CUTS_lpg_8  1
    SRS_lpg_8  SULF_8  1
    SR_nap_8  CUT_nap_8  1
    SR_nap_8  NAP_8  1
    SRS_nap_8  CUTS_nap_8  1
    SRS_nap_8  SULF_8  1
    SR_ker_8  CUT_ker_8  1
    SR_ker_8  KER_8  1
    SRS_ker_8  CUTS_ker_8  1
    SRS_ker_8  SULF_8  1
    SR_gso_8  CUT_gso_8  1
    SR_gso_8  GSO_8  1
    SRS_gso_8  CUTS_gso_8  1
    SRS_gso_8  SULF_8  1
    SR_vgo_8  CUT_vgo_8  1
    SR_vgo_8  VGO_8  1
    SRS_vgo_8  CUTS_vgo_8  1
    SRS_vgo_8  SULF_8  1
    SR_res_8  CUT_res_8  1
    SR_res_8  RES_8  1
    SRS_res_8  CUTS_res_8  1
    SRS_res_8  SULF_8  1
    MARKER  'MARKER'  'INTORG'
    FCCON_8  MARGIN  3000
    FCCON_8  FCCMIN_8  -180
    FCCON_8  FCCMAX_8  -450
    MARKER  'MARKER'  'INTEND'
    FCCFEED_8  MARGIN  4
    FCCFEED_8  FCCMIN_8  1
    FCCFEED_8  FCCMAX_8  1
    FCCFEED_8  VGO_8  -1
    FCCFEED_8  GAS_8  0.55
    FCCFEED_8  GASOCT_8  2.75
    FCCFEED_8  DSL_8  0.3
    FCCFEED_8  FO_8  0.1
    FCCFEED_8  DSLS_8  0.24
    VGO2FO_8  VGO_8  -1
    VGO2FO_8  FO_8  1
    NAP2GAS_8  NAP_8  -1
    NAP2GAS_8  GAS_8  1
    NAP2GAS_8  GASOCT_8  -19
    NAP2FO_8  NAP_8  -1
    NAP2FO_8  FO_8  1
    KER2JET_8  KER_8  -1
    KER2JET_8  JET_8  1
    KER2JET_8  JETS_8  -0.05
    KER2DSL_8  KER_8  -1
    KER2DSL_8  DSL_8  1
    KER2DSL_8  DSLS_8  0.9
    GSO2DSL_8  GSO_8  -1
    GSO2DSL_8  DSL_8  1
    GSO2DSL_8  DSLS_8  1.4
    GSO2FO_8  GSO_8  -1
    GSO2FO_8  FO_8  1
    RES2FO_8  RES_8  -1
    RES2FO_8  FO_8  1
    PROD_lpg_8  LPGP_8  -1
    PROD_lpg_8  PBAL_lpg_8  1
    PROD_gas_8  GAS_8  -1
    PROD_gas_8  PBAL_gas_8  1
    PROD_jet_8  JET_8  -1
    PROD_jet_8  PBAL_jet_8  1
    PROD_dsl_8  DSL_8  -1
    PROD_dsl_8  DSLS_8  -1
    PROD_dsl_8  PBAL_dsl_8  1
    PROD_fo_8  FO_8  -1
    PROD_fo_8  PBAL_fo_8  1
    SELL_lpg_8  MARGIN  -60
    SELL_lpg_8  PBAL_lpg_8  -1
    PINV_lpg_8  MARGIN  0.8
    PINV_lpg_8  PBAL_lpg_8  -1
    PINV_lpg_8  PBAL_lpg_9  1
    SELL_gas_8  MARGIN  -105
    SELL_gas_8  PBAL_gas_8  -1
    PINV_gas_8  MARGIN  0.8
    PINV_gas_8  PBAL_gas_8  -1
    PINV_gas_8  PBAL_gas_9  1
    SELL_jet_8  MARGIN  -100
    SELL_jet_8  PBAL_jet_8  -1
    PINV_jet_8  MARGIN  0.8
    PINV_jet_8  PBAL_jet_8  -1
    PINV_jet_8  PBAL_jet_9  1
    SELL_dsl_8  MARGIN  -98
    SELL_dsl_8  PBAL_dsl_8  -1
    PINV_dsl_8  MARGIN  0.8
    PINV_dsl_8  PBAL_dsl_8  -1
    PINV_dsl_8  PBAL_dsl_9  1
    SELL_fo_8  MARGIN  -55
    SELL_fo_8  PBAL_fo_8  -1
    PINV_fo_8  MARGIN  0.8
    PINV_fo_8  PBAL_fo_8  -1
    PINV_fo_8  PBAL_fo_9  1
    BUY_0_9  MARGIN  62.43723806
    BUY_0_9  LOTMIN_0_9  1
    BUY_0_9  LOTMAX_0_9  1
    BUY_0_9  CBAL_0_9  -1
    MARKER  'MARKER'  'INTORG'
    CARGO_0_9  MARGIN  1233.617344
    CARGO_0_9  LOTMIN_0_9  -150
    CARGO_0_9  LOTMAX_0_9  -600
    MARKER  'MARKER'  'INTEND'
    CINV_0_9  MARGIN  0.4
    CINV_0_9  CBAL_0_9  1
    CINV_0_9  CBAL_0_10  -1
    FEED_0_9  CBAL_0_9  1
    FEED_0_9  CDU_9  1
    FEED_0_9  MARGIN  2
    FEED_0_9  CUT_lpg_9  -0.01403092732
    FEED_0_9  CUT_nap_9  -0.1201546366
    FEED_0_9  CUTS_nap_9  -0.01536512163
    FEED_0_9  CUT_ker_9  -0.1080618546
    FEED_0_9  CUTS_ker_9  -0.04145616649
    FEED_0_9  CUT_gso_9  -0.1880618546
    FEED_0_9  CUTS_gso_9  -0.2885874421
    FEED_0_9  CUT_vgo_9  -0.2432817878
    FEED_0_9  CUTS_vgo_9  -0.7466486916
    FEED_0_9  CUT_res_9  -0.326408939
    FEED_0_9  CUTS_res_9  -2.08702435
    BUY_1_9  MARGIN  62.98571642
    BUY_1_9  LOTMIN_1_9  1
    BUY_1_9  LOTMAX_1_9  1
    BUY_1_9  CBAL_1_9  -1
    MARKER  'MARKER'  'INTORG'
    CARGO_1_9  MARGIN  852.0029712
    CARGO_1_9  LOTMIN_1_9  -150
    CARGO_1_9  LOTMAX_1_9  -600
    MARKER  'MARKER'  'INTEND'
    CINV_1_9  MARGIN  0.4
    CINV_1_9  CBAL_1_9  1
    CINV_1_9  CBAL_1_10  -1
    FEED_1_9  CBAL_1_9  1
    FEED_1_9  CDU_9  1
    FEED_1_9  MARGIN  2
    FEED_1_9  CUT_lpg_9  -0.01686286664
    FEED_1_9  CUT_nap_9  -0.1343143332
    FEED_1_9  CUTS_nap_9  -0.01908126512
    FEED_1_9  CUT_ker_9  -0.1137257333
    FEED_1_9  CUTS_ker_9  -0.0484690833
    FEED_1_9  CUT_gso_9  -0.1937257333
    FEED_1_9  CUTS_gso_9  -0.330258014
    FEED_1_9  CUT_vgo_9  -0.2385618889
    FEED_1_9  CUTS_vgo_9  -0.8133867848
    FEED_1_9  CUT_res_9  -0.3028094447
    FEED_1_9  CUTS_res_9  -2.150919846
    BUY_2_9  MARGIN  66.0530987
    BUY_2_9  LOTMIN_2_9  1
    BUY_2_9  LOTMAX_2_9  1
    BUY_2_9  CBAL_2_9  -1
    MARKER  'MARKER'  'INTORG'
    CARGO_2_9  MARGIN  836.532499
    CARGO_2_9  LOTMIN_2_9  -150
    CARGO_2_9  LOTMAX_2_9  -600
    MARKER  'MARKER'  'INTEND'
    CINV_2_9  MARGIN  0.4
    CINV_2_9  CBAL_2_9  1
    CINV_2_9  CBAL_2_10  -1
    FEED_2_9  CBAL_2_9  1
    FEED_2_9  CDU_9  1
    FEED_2_9  MARGIN  2
    FEED_2_9  CUT_lpg_9  -0.01656343112
    FEED_2_9  CUT_nap_9  -0.1328171556
    FEED_2_9  CUTS_nap_9  -0.009515353406
    FEED_2_9  CUT_ker_9  -0.1131268622
    FEED_2_9  CUTS_ker_9  -0.02431407454
    FEED_2_9  CUT_gso_9  -0.1931268622
    FEED_2_9  CUTS_gso_9  -0.1660331006
    FEED_2_9  CUT_vgo_9  -0.2390609481
    FEED_2_9  CUTS_vgo_9  -0.41104619
    FEED_2_9  CUT_res_9  -0.3053047407
    FEED_2_9  CUTS_res_9  -1.093639783
    BUY_3_9  MARGIN  70.99835779
    BUY_3_9  LOTMIN_3_9  1
    BUY_3_9  LOTMAX_3_9  1
    BUY_3_9  CBAL_3_9  -1
    MARKER  'MARKER'  'INTORG'
    CARGO_3_9  MARGIN  1798.88703
    CARGO_3_9  LOTMIN_3_9  -150
    CARGO_3_9  LOTMAX_3_9  -600
    MARKER  'MARKER'  'INTEND'
    CINV_3_9  MARGIN  0.4
    CINV_3_9  CBAL_3_9  1
    CINV_3_9  CBAL_3_10  -1
    FEED_3_9  CBAL_3_9  1
    FEED_3_9  CDU_9  1
    FEED_3_9  MARGIN  2
    FEED_3_9  CUT_lpg_9  -0.0349010708
    FEED_3_9  CUT_nap_9  -0.224505354
    FEED_3_9  CUTS_nap_9  -0.0229431691
    FEED_3_9  CUT_ker_9  -0.1498021416
    FEED_3_9  CUTS_ker_9  -0.0459267782
    FEED_3_9  CUT_gso_9  -0.2298021416
    FEED_3_9  CUTS_gso_9  -0.2818136476
    FEED_3_9  CUT_vgo_9  -0.2084982153
    FEED_3_9  CUTS_vgo_9  -0.5113759357
    FEED_3_9  CUT_res_9  -0.1524910767
    FEED_3_9  CUTS_res_9  -0.7791859962
    BUY_4_9  MARGIN  69.03818729
    BUY_4_9  LOTMIN_4_9  1
    BUY_4_9  LOTMAX_4_9  1
    BUY_4_9  CBAL_4_9  -1
    MARKER  'MARKER'  'INTORG'
    CARGO_4_9  MARGIN  2123.352446
    CARGO_4_9  LOTMIN_4_9  -150
    CARGO_4_9  LOTMAX_4_9  -600
    MARKER  'MARKER'  'INTEND'
    CINV_4_9  MARGIN  0.4
    CINV_4_9  CBAL_4_9  1
    CINV_4_9  CBAL_4_10  -1
    FEED_4_9  CBAL_4_9  1
    FEED_4_9  CDU_9  1
    FEED_4_9  MARGIN  2
    FEED_4_9  CUT_lpg_9  -0.02124109062
    FEED_4_9  CUT_nap_9  -0.1562054531
    FEED_4_9  CUTS_nap_9  -0.01072341631
    FEED_4_9  CUT_ker_9  -0.1224821812
    FEED_4_9  CUTS_ker_9  -0.02522499812
    FEED_4_9  CUT_gso_9  -0.2024821812
    FEED_4_9  CUTS_gso_9  -0.1668034514
    FEED_4_9  CUT_vgo_9  -0.231264849
    FEED_4_9  CUTS_vgo_9  -0.3810288367
    FEED_4_9  CUT_res_9  -0.2663242449
    FEED_4_9  CUTS_res_9  -0.9141504649
    BUY_5_9  MARGIN  74.02787439
    BUY_5_9  LOTMIN_5_9  1
    BUY_5_9  LOTMAX_5_9  1
    BUY_5_9  CBAL_5_9  -1
    MARKER  'MARKER'  'INTORG'
    CARGO_5_9  MARGIN  1194.699418
    CARGO_5_9  LOTMIN_5_9  -150
    CARGO_5_9  LOTMAX_5_9  -600
    MARKER  'MARKER'  'INTEND'
    CINV_5_9  MARGIN  0.4
    CINV_5_9  CBAL_5_9  1
    CINV_5_9  CBAL_5_10  -1
    FEED_5_9  CBAL_5_9  1
    FEED_5_9  CDU_9  1
    FEED_5_9  MARGIN  2
    FEED_5_9  CUT_lpg_9  -0.03311569419
    FEED_5_9  CUT_nap_9  -0.215578471
    FEED_5_9  CUTS_nap_9  -0.0179457285
    FEED_5_9  CUT_ker_9  -0.1462313884
    FEED_5_9  CUTS_ker_9  -0.0365188896
    FEED_5_9  CUT_gso_9  -0.2262313884
    FEED_5_9  CUTS_gso_9  -0.2259903072
    FEED_5_9  CUT_vgo_9  -0.211473843
    FEED_5_9  CUTS_vgo_9  -0.4224969762
    FEED_5_9  CUT_res_9  -0.167369215
    FEED_5_9  CUTS_res_9  -0.6966285823
    BUY_6_9  MARGIN  73.53844218
    BUY_6_9  LOTMIN_6_9  1
    BUY_6_9  LOTMAX_6_9  1
    BUY_6_9  CBAL_6_9  -1
    MARKER  'MARKER'  'INTORG'
    CARGO_6_9  MARGIN  1524.354155
    CARGO_6_9  LOTMIN_6_9  -150
    CARGO_6_9  LOTMAX_6_9  -600
    MARKER  'MARKER'  'INTEND'
    CINV_6_9  MARGIN  0.4
    CINV_6_9  CBAL_6_9  1
    CINV_6_9  CBAL_6_10  -1
    FEED_6_9  CBAL_6_9  1
    FEED_6_9  CDU_9  1
    FEED_6_9  MARGIN  2
    FEED_6_9  CUT_lpg_9  -0.03427419703
    FEED_6_9  CUT_nap_9  -0.2213709851
    FEED_6_9  CUTS_nap_9  -0.0177558017
    FEED_6_9  CUT_ker_9  -0.1485483941
    FEED_6_9  CUTS_ker_9  -0.03574446524
    FEED_6_9  CUT_gso_9  -0.2285483941
    FEED_6_9  CUTS_gso_9  -0.219977878
    FEED_6_9  CUT_vgo_9  -0.209543005
    FEED_6_9  CUTS_vgo_9  -0.4033703739
    FEED_6_9  CUT_res_9  -0.1577150248
    FEED_6_9  CUTS_res_9  -0.6325031042
    BUY_7_9  MARGIN  65.98112648
    BUY_7_9  LOTMIN_7_9  1
    BUY_7_9  LOTMAX_7_9  1
    BUY_7_9  CBAL_7_9  -1
    MARKER  'MARKER'  'INTORG'
    CARGO_7_9  MARGIN  1793.58348
    CARGO_7_9  LOTMIN_7_9  -150
    CARGO_7_9  LOTMAX_7_9  -600
    MARKER  'MARKER'  'INTEND'
    CINV_7_9  MARGIN  0.4
    CINV_7_9  CBAL_7_9  1
    CINV_7_9  CBAL_7_10  -1
    FEED_7_9  CBAL_7_9  1
    FEED_7_9  CDU_9  1
    FEED_7_9  MARGIN  2
    FEED_7_9  CUT_lpg_9  -0.01083924952
    FEED_7_9  CUT_nap_9  -0.1041962476
    FEED_7_9  CUTS_nap_9  -0.003989958728
    FEED_7_9  CUT_ker_9  -0.101678499
    FEED_7_9  CUTS_ker_9  -0.01168064179
    FEED_7_9  CUT_gso_9  -0.181678499
    FEED_7_9  CUTS_gso_9  -0.08348358752
    FEED_7_9  CUT_vgo_9  -0.2486012508
    FEED_7_9  CUTS_vgo_9  -0.228470891
    FEED_7_9  CUT_res_9  -0.353006254
    FEED_7_9  CUTS_res_9  -0.6758786504
    BUY_8_9  MARGIN  63.04385081
    BUY_8_9  LOTMIN_8_9  1
    BUY_8_9  LOTMAX_8_9  1
    BUY_8_9  CBAL_8_9  -1
    MARKER  'MARKER'  'INTORG'
    CARGO_8_9  MARGIN  918.1761435
    CARGO_8_9  LOTMIN_8_9  -150
    CARGO_8_9  LOTMAX_8_9  -600
    MARKER  'MARKER'  'INTEND'
    CINV_8_9  MARGIN  0.4
    CINV_8_9  CBAL_8_9  1
    CINV_8_9  CBAL_8_10  -1
    FEED_8_9  CBAL_8_9  1
    FEED_8_9  CDU_9  1
    FEED_8_9  MARGIN  2
    FEED_8_9  CUT_lpg_9  -0.01328465882
    FEED_8_9  CUT_nap_9  -0.1164232941
    FEED_8_9  CUTS_nap_9  -0.01112963641
    FEED_8_9  CUT_ker_9  -0.1065693176
    FEED_8_9  CUTS_ker_9  -0.03056289808
    FEED_8_9  CUT_gso_9  -0.1865693176
    FEED_8_9  CUTS_gso_9  -0.2140240424
    FEED_8_9  CUT_vgo_9  -0.2445255686
    FEED_8_9  CUTS_vgo_9  -0.5610177637
    FEED_8_9  CUT_res_9  -0.3326278432
    FEED_8_9  CUTS_res_9  -1.589899591
    BUY_9_9  MARGIN  60.50770963
    BUY_9_9  LOTMIN_9_9  1
    BUY_9_9  LOTMAX_9_9  1
    BUY_9_9  CBAL_9_9  -1
    MARKER  'MARKER'  'INTORG'
    CARGO_9_9  MARGIN  1155.454687
    CARGO_9_9  LOTMIN_9_9  -150
    CARGO_9_9  LOTMAX_9_9  -600
    MARKER  'MARKER'  'INTEND'
    CINV_9_9  MARGIN  0.4
    CINV_9_9  CBAL_9_9  1
    CINV_9_9  CBAL_9_10  -1
    FEED_9_9  CBAL_9_9  1
    FEED_9_9  CDU_9  1
    FEED_9_9  MARGIN  2
    FEED_9_9  CUT_lpg_9  -0.01326285077
    FEED_9_9  CUT_nap_9  -0.1163142539
    FEED_9_9  CUTS_nap_9  -0.0157575203
    FEED_9_9  CUT_ker_9  -0.1065257015
    FEED_9_9  CUTS_ker_9  -0.04329428722
    FEED_9_9  CUT_gso_9  -0.1865257015
    FEED_9_9  CUTS_gso_9  -0.3032318841
    FEED_9_9  CUT_vgo_9  -0.2445619154
    FEED_9_9  CUTS_vgo_9  -0.7951608789
    FEED_9_9  CUT_res_9  -0.3328095769
    FEED_9_9  CUTS_res_9  -2.254346948
    BUY_10_9  MARGIN  72.07395902
    BUY_10_9  LOTMIN_10_9  1
    BUY_10_9  LOTMAX_10_9  1
    BUY_10_9  CBAL_10_9  -1
    MARKER  'MARKER'  'INTORG'
    CARGO_10_9  MARGIN  1902.460911
    CARGO_10_9  LOTMIN_10_9  -150
    CARGO_10_9  LOTMAX_10_9  -600
    MARKER  'MARKER'  'INTEND'
    CINV_10_9  MARGIN  0.4
    CINV_10_9  CBAL_10_9  1
    CINV_10_9  CBAL_10_10  -1
    FEED_10_9  CBAL_10_9  1
    FEED_10_9  CDU_9  1
    FEED_10_9  MARGIN  2
    FEED_10_9  CUT_lpg_9  -0.03393432573
    FEED_10_9  CUT_nap_9  -0.2196716287
    FEED_10_9  CUTS_nap_9  -0.01755328544
    FEED_10_9  CUT_ker_9  -0.1478686515
    FEED_10_9  CUTS_ker_9  -0.03544718993
    FEED_10_9  CUT_gso_9  -0.2278686515
    FEED_10_9  CUTS_gso_9  -0.2184994125
    FEED_10_9  CUT_vgo_9  -0.2101094571
    FEED_10_9  CUTS_vgo_9  -0.4029408402
    FEED_10_9  CUT_res_9  -0.1605472856
    FEED_10_9  CUTS_res_9  -0.6414420352
    BUY_11_9  MARGIN  72.70793959
    BUY_11_9  LOTMIN_11_9  1
    BUY_11_9  LOTMAX_11_9  1
    BUY_11_9  CBAL_11_9  -1
    MARKER  'MARKER'  'INTORG'
    CARGO_11_9  MARGIN  814.4164462
    CARGO_11_9  LOTMIN_11_9  -150
    CARGO_11_9  LOTMAX_11_9  -600
    MARKER  'MARKER'  'INTEND'
    CINV_11_9  MARGIN  0.4
    CINV_11_9  CBAL_11_9  1
    CINV_11_9  CBAL_11_10  -1
    FEED_11_9  CBAL_11_9  1
    FEED_11_9  CDU_9  1
    FEED_11_9  MARGIN  2
    FEED_11_9  CUT_lpg_9  -0.03231526356
    FEED_11_9  CUT_nap_9  -0.2115763178
    FEED_11_9  CUTS_nap_9  -0.01382544985
    FEED_11_9  CUT_ker_9  -0.1446305271
    FEED_11_9  CUTS_ker_9  -0.02835263588
    FEED_11_9  CUT_gso_9  -0.2246305271
    FEED_11_9  CUTS_gso_9  -0.1761417225
    FEED_11_9  CUT_vgo_9  -0.2128078941
    FEED_11_9  CUTS_vgo_9  -0.3337422523
    FEED_11_9  CUT_res_9  -0.1740394703
    FEED_11_9  CUTS_res_9  -0.5686302689
    SR_lpg_9  CUT_lpg_9  1
    SR_lpg_9  LPGP_9  1
    SRS_lpg_9  CUTS_lpg_9  1
    SRS_lpg_9  SULF_9  1
    SR_nap_9  CUT_nap_9  1
    SR_nap_9  NAP_9  1
    SRS_nap_9  CUTS_nap_9  1
    SRS_nap_9  SULF_9  1
    SR_ker_9  CUT_ker_9  1
    SR_ker_9  KER_9  1
    SRS_ker_9  CUTS_ker_9  1
    SRS_ker_9  SULF_9  1
    SR_gso_9  CUT_gso_9  1
    SR_gso_9  GSO_9  1
    SRS_gso_9  CUTS_gso_9  1
    SRS_gso_9  SULF_9  1
    SR_vgo_9  CUT_vgo_9  1
    SR_vgo_9  VGO_9  1
    SRS_vgo_9  CUTS_vgo_9  1
    SRS_vgo_9  SULF_9  1
    SR_res_9  CUT_res_9  1
    SR_res_9  RES_9  1
    SRS_res_9  CUTS_res_9  1
    SRS_res_9  SULF_9  1
    MARKER  'MARKER'  'INTORG'
    FCCON_9  MARGIN  3000
    FCCON_9  FCCMIN_9  -180
    FCCON_9  FCCMAX_9  -450
    MARKER  'MARKER'  'INTEND'
    FCCFEED_9  MARGIN  4
    FCCFEED_9  FCCMIN_9  1
    FCCFEED_9  FCCMAX_9  1
    FCCFEED_9  VGO_9  -1
    FCCFEED_9  GAS_9  0.55
    FCCFEED_9  GASOCT_9  2.75
    FCCFEED_9  DSL_9  0.3
    FCCFEED_9  FO_9  0.1
    FCCFEED_9  DSLS_9  0.24
    VGO2FO_9  VGO_9  -1
    VGO2FO_9  FO_9  1
    NAP2GAS_9  NAP_9  -1
    NAP2GAS_9  GAS_9  1
    NAP2GAS_9  GASOCT_9  -19
    NAP2FO_9  NAP_9  -1
    NAP2FO_9  FO_9  1
    KER2JET_9  KER_9  -1
    KER2JET_9  JET_9  1
    KER2JET_9  JETS_9  -0.05
    KER2DSL_9  KER_9  -1
    KER2DSL_9  DSL_9  1
    KER2DSL_9  DSLS_9  0.9
    GSO2DSL_9  GSO_9  -1
    GSO2DSL_9  DSL_9  1
    GSO2DSL_9  DSLS_9  1.4
    GSO2FO_9  GSO_9  -1
    GSO2FO_9  FO_9  1
    RES2FO_9  RES_9  -1
    RES2FO_9  FO_9  1
    PROD_lpg_9  LPGP_9  -1
    PROD_lpg_9  PBAL_lpg_9  1
    PROD_gas_9  GAS_9  -1
    PROD_gas_9  PBAL_gas_9  1
    PROD_jet_9  JET_9  -1
    PROD_jet_9  PBAL_jet_9  1
    PROD_dsl_9  DSL_9  -1
    PROD_dsl_9  DSLS_9  -1
    PROD_dsl_9  PBAL_dsl_9  1
    PROD_fo_9  FO_9  -1
    PROD_fo_9  PBAL_fo_9  1
    SELL_lpg_9  MARGIN  -60
    SELL_lpg_9  PBAL_lpg_9  -1
    PINV_lpg_9  MARGIN  0.8
    PINV_lpg_9  PBAL_lpg_9  -1
    PINV_lpg_9  PBAL_lpg_10  1
    SELL_gas_9  MARGIN  -105
    SELL_gas_9  PBAL_gas_9  -1
    PINV_gas_9  MARGIN  0.8
    PINV_gas_9  PBAL_gas_9  -1
    PINV_gas_9  PBAL_gas_10  1
    SELL_jet_9  MARGIN  -100
    SELL_jet_9  PBAL_jet_9  -1
    PINV_jet_9  MARGIN  0.8
    PINV_jet_9  PBAL_jet_9  -1
    PINV_jet_9  PBAL_jet_10  1
    SELL_dsl_9  MARGIN  -98
    SELL_dsl_9  PBAL_dsl_9  -1
    PINV_dsl_9  MARGIN  0.8
    PINV_dsl_9  PBAL_dsl_9  -1
    PINV_dsl_9  PBAL_dsl_10  1
    SELL_fo_9  MARGIN  -55
    SELL_fo_9  PBAL_fo_9  -1
    PINV_fo_9  MARGIN  0.8
    PINV_fo_9  PBAL_fo_9  -1
    PINV_fo_9  PBAL_fo_10  1
    BUY_0_10  MARGIN  62.43723806
    BUY_0_10  LOTMIN_0_10  1
    BUY_0_10  LOTMAX_0_10  1
    BUY_0_10  CBAL_0_10  -1
    MARKER  'MARKER'  'INTORG'
    CARGO_0_10  MARGIN  1233.617344
    CARGO_0_10  LOTMIN_0_10  -150
    CARGO_0_10  LOTMAX_0_10  -600
    MARKER  'MARKER'  'INTEND'
    CINV_0_10  MARGIN  0.4
    CINV_0_10  CBAL_0_10  1
    CINV_0_10  CBAL_0_11  -1
    FEED_0_10  CBAL_0_10  1
    FEED_0_10  CDU_10  1
    FEED_0_10  MARGIN  2
    FEED_0_10  CUT_lpg_10  -0.01403092732
    FEED_0_10  CUT_nap_10  -0.1201546366
    FEED_0_10  CUTS_nap_10  -0.01536512163
    FEED_0_10  CUT_ker_10  -0.1080618546
    FEED_0_10  CUTS_ker_10  -0.04145616649
    FEED_0_10  CUT_gso_10  -0.1880618546
    FEED_0_10  CUTS_gso_10  -0.2885874421
    FEED_0_10  CUT_vgo_10  -0.2432817878
    FEED_0_10  CUTS_vgo_10  -0.7466486916
    FEED_0_10  CUT_res_10  -0.326408939
    FEED_0_10  CUTS_res_10  -2.08702435
    BUY_1_10  MARGIN  62.98571642
    BUY_1_10  LOTMIN_1_10  1
    BUY_1_10  LOTMAX_1_10  1
    BUY_1_10  CBAL_1_10  -1
    MARKER  'MARKER'  'INTORG'
    CARGO_1_10  MARGIN  852.0029712
    CARGO_1_10  LOTMIN_1_10  -150
    CARGO_1_10  LOTMAX_1_10  -600
    MARKER  'MARKER'  'INTEND'
    CINV_1_10  MARGIN  0.4
    CINV_1_10  CBAL_1_10  1
    CINV_1_10  CBAL_1_11  -1
    FEED_1_10  CBAL_1_10  1
    FEED_1_10  CDU_10  1
    FEED_1_10  MARGIN  2
    FEED_1_10  CUT_lpg_10  -0.01686286664
    FEED_1_10  CUT_nap_10  -0.1343143332
    FEED_1_10  CUTS_nap_10  -0.01908126512
    FEED_1_10  CUT_ker_10  -0.1137257333
    FEED_1_10  CUTS_ker_10  -0.0484690833
    FEED_1_10  CUT_gso_10  -0.1937257333
    FEED_1_10  CUTS_gso_10  -0.330258014
    FEED_1_10  CUT_vgo_10  -0.2385618889
    FEED_1_10  CUTS_vgo_10  -0.8133867848
    FEED_1_10  CUT_res_10  -0.3028094447
    FEED_1_10  CUTS_res_10  -2.150919846
    BUY_2_10  MARGIN  66.0530987
    BUY_2_10  LOTMIN_2_10  1
    BUY_2_10  LOTMAX_2_10  1
    BUY_2_10  CBAL_2_10  -1
    MARKER  'MARKER'  'INTORG'
    CARGO_2_10  MARGIN  836.532499
    CARGO_2_10  LOTMIN_2_10  -150
    CARGO_2_10  LOTMAX_2_10  -600
    MARKER  'MARKER'  'INTEND'
    CINV_2_10  MARGIN  0.4
    CINV_2_10  CBAL_2_10  1
    CINV_2_10  CBAL_2_11  -1
    FEED_2_10  CBAL_2_10  1
    FEED_2_10  CDU_10  1
    FEED_2_10  MARGIN  2
    FEED_2_10  CUT_lpg_10  -0.01656343112
    FEED_2_10  CUT_nap_10  -0.1328171556
    FEED_2_10  CUTS_nap_10  -0.009515353406
    FEED_2_10  CUT_ker_10  -0.1131268622
    FEED_2_10  CUTS_ker_10  -0.02431407454
    FEED_2_10  CUT_gso_10  -0.1931268622
    FEED_2_10  CUTS_gso_10  -0.1660331006
    FEED_2_10  CUT_vgo_10  -0.2390609481
    FEED_2_10  CUTS_vgo_10  -0.41104619
    FEED_2_10  CUT_res_10  -0.3053047407
    FEED_2_10  CUTS_res_10  -1.093639783
    BUY_3_10  MARGIN  70.99835779
    BUY_3_10  LOTMIN_3_10  1
    BUY_3_10  LOTMAX_3_10  1
    BUY_3_10  CBAL_3_10  -1
    MARKER  'MARKER'  'INTORG'
    CARGO_3_10  MARGIN  1798.88703
    CARGO_3_10  LOTMIN_3_10  -150
    CARGO_3_10  LOTMAX_3_10  -600
    MARKER  'MARKER'  'INTEND'
    CINV_3_10  MARGIN  0.4
    CINV_3_10  CBAL_3_10  1
    CINV_3_10  CBAL_3_11  -1
    FEED_3_10  CBAL_3_10  1
    FEED_3_10  CDU_10  1
    FEED_3_10  MARGIN  2
    FEED_3_10  CUT_lpg_10  -0.0349010708
    FEED_3_10  CUT_nap_10  -0.224505354
    FEED_3_10  CUTS_nap_10  -0.0229431691
    FEED_3_10  CUT_ker_10  -0.1498021416
    FEED_3_10  CUTS_ker_10  -0.0459267782
    FEED_3_10  CUT_gso_10  -0.2298021416
    FEED_3_10  CUTS_gso_10  -0.2818136476
    FEED_3_10  CUT_vgo_10  -0.2084982153
    FEED_3_10  CUTS_vgo_10  -0.5113759357
    FEED_3_10  CUT_res_10  -0.1524910767
    FEED_3_10  CUTS_res_10  -0.7791859962
    BUY_4_10  MARGIN  69.03818729
    BUY_4_10  LOTMIN_4_10  1
    BUY_4_10  LOTMAX_4_10  1
    BUY_4_10  CBAL_4_10  -1
    MARKER  'MARKER'  'INTORG'
    CARGO_4_10  MARGIN  2123.352446
    CARGO_4_10  LOTMIN_4_10  -150
    CARGO_4_10  LOTMAX_4_10  -600
    MARKER  'MARKER'  'INTEND'
    CINV_4_10  MARGIN  0.4
    CINV_4_10  CBAL_4_10  1
    CINV_4_10  CBAL_4_11  -1
    FEED_4_10  CBAL_4_10  1
    FEED_4_10  CDU_10  1
    FEED_4_10  MARGIN  2
    FEED_4_10  CUT_lpg_10  -0.02124109062
    FEED_4_10  CUT_nap_10  -0.1562054531
    FEED_4_10  CUTS_nap_10  -0.01072341631
    FEED_4_10  CUT_ker_10  -0.1224821812
    FEED_4_10  CUTS_ker_10  -0.02522499812
    FEED_4_10  CUT_gso_10  -0.2024821812
    FEED_4_10  CUTS_gso_10  -0.1668034514
    FEED_4_10  CUT_vgo_10  -0.231264849
    FEED_4_10  CUTS_vgo_10  -0.3810288367
    FEED_4_10  CUT_res_10  -0.2663242449
    FEED_4_10  CUTS_res_10  -0.9141504649
    BUY_5_10  MARGIN  74.02787439
    BUY_5_10  LOTMIN_5_10  1
    BUY_5_10  LOTMAX_5_10  1
    BUY_5_10  CBAL_5_10  -1
    MARKER  'MARKER'  'INTORG'
    CARGO_5_10  MARGIN  1194.699418
    CARGO_5_10  LOTMIN_5_10  -150
    CARGO_5_10  LOTMAX_5_10  -600
    MARKER  'MARKER'  'INTEND'
    CINV_5_10  MARGIN  0.4
    CINV_5_10  CBAL_5_10  1
    CINV_5_10  CBAL_5_11  -1
    FEED_5_10  CBAL_5_10  1
    FEED_5_10  CDU_10  1
    FEED_5_10  MARGIN  2
    FEED_5_10  CUT_lpg_10  -0.03311569419
    FEED_5_10  CUT_nap_10  -0.215578471
    FEED_5_10  CUTS_nap_10  -0.0179457285
    FEED_5_10  CUT_ker_10  -0.1462313884
    FEED_5_10  CUTS_ker_10  -0.0365188896
    FEED_5_10  CUT_gso_10  -0.2262313884
    FEED_5_10  CUTS_gso_10  -0.2259903072
    FEED_5_10  CUT_vgo_10  -0.211473843
    FEED_5_10  CUTS_vgo_10  -0.4224969762
    FEED_5_10  CUT_res_10  -0.167369215
    FEED_5_10  CUTS_res_10  -0.6966285823
    BUY_6_10  MARGIN  73.53844218
    BUY_6_10  LOTMIN_6_10  1
    BUY_6_10  LOTMAX_6_10  1
    BUY_6_10  CBAL_6_10  -1
    MARKER  'MARKER'  'INTORG'
    CARGO_6_10  MARGIN  1524.354155
    CARGO_6_10  LOTMIN_6_10  -150
    CARGO_6_10  LOTMAX_6_10  -600
    MARKER  'MARKER'  'INTEND'
    CINV_6_10  MARGIN  0.4
    CINV_6_10  CBAL_6_10  1
    CINV_6_10  CBAL_6_11  -1
    FEED_6_10  CBAL_6_10  1
    FEED_6_10  CDU_10  1
    FEED_6_10  MARGIN  2
    FEED_6_10  CUT_lpg_10  -0.03427419703
    FEED_6_10  CUT_nap_10  -0.2213709851
    FEED_6_10  CUTS_nap_10  -0.0177558017
    FEED_6_10  CUT_ker_10  -0.1485483941
    FEED_6_10  CUTS_ker_10  -0.03574446524
    FEED_6_10  CUT_gso_10  -0.2285483941
    FEED_6_10  CUTS_gso_10  -0.219977878
    FEED_6_10  CUT_vgo_10  -0.209543005
    FEED_6_10  CUTS_vgo_10  -0.4033703739
    FEED_6_10  CUT_res_10  -0.1577150248
    FEED_6_10  CUTS_res_10  -0.6325031042
    BUY_7_10  MARGIN  65.98112648
    BUY_7_10  LOTMIN_7_10  1
    BUY_7_10  LOTMAX_7_10  1
    BUY_7_10  CBAL_7_10  -1
    MARKER  'MARKER'  'INTORG'
    CARGO_7_10  MARGIN  1793.58348
    CARGO_7_10  LOTMIN_7_10  -150
    CARGO_7_10  LOTMAX_7_10  -600
    MARKER  'MARKER'  'INTEND'
    CINV_7_10  MARGIN  0.4
    CINV_7_10  CBAL_7_10  1
    CINV_7_10  CBAL_7_11  -1
    FEED_7_10  CBAL_7_10  1
    FEED_7_10  CDU_10  1
    FEED_7_10  MARGIN  2
    FEED_7_10  CUT_lpg_10  -0.01083924952
    FEED_7_10  CUT_nap_10  -0.1041962476
    FEED_7_10  CUTS_nap_10  -0.003989958728
    FEED_7_10  CUT_ker_10  -0.101678499
    FEED_7_10  CUTS_ker_10  -0.01168064179
    FEED_7_10  CUT_gso_10  -0.181678499
    FEED_7_10  CUTS_gso_10  -0.08348358752
    FEED_7_10  CUT_vgo_10  -0.2486012508
    FEED_7_10  CUTS_vgo_10  -0.228470891
    FEED_7_10  CUT_res_10  -0.353006254
    FEED_7_10  CUTS_res_10  -0.6758786504
    BUY_8_10  MARGIN  63.04385081
    BUY_8_10  LOTMIN_8_10  1
    BUY_8_10  LOTMAX_8_10  1
    BUY_8_10  CBAL_8_10  -1
    MARKER  'MARKER'  'INTORG'
    CARGO_8_10  MARGIN  918.1761435
    CARGO_8_10  LOTMIN_8_10  -150
    CARGO_8_10  LOTMAX_8_10  -600
    MARKER  'MARKER'  'INTEND'
    CINV_8_10  MARGIN  0.4
    CINV_8_10  CBAL_8_10  1
    CINV_8_10  CBAL_8_11  -1
    FEED_8_10  CBAL_8_10  1
    FEED_8_10  CDU_10  1
    FEED_8_10  MARGIN  2
    FEED_8_10  CUT_lpg_10  -0.01328465882
    FEED_8_10  CUT_nap_10  -0.1164232941
    FEED_8_10  CUTS_nap_10  -0.01112963641
    FEED_8_10  CUT_ker_10  -0.1065693176
    FEED_8_10  CUTS_ker_10  -0.03056289808
    FEED_8_10  CUT_gso_10  -0.1865693176
    FEED_8_10  CUTS_gso_10  -0.2140240424
    FEED_8_10  CUT_vgo_10  -0.2445255686
    FEED_8_10  CUTS_vgo_10  -0.5610177637
    FEED_8_10  CUT_res_10  -0.3326278432
    FEED_8_10  CUTS_res_10  -1.589899591
    BUY_9_10  MARGIN  60.50770963
    BUY_9_10  LOTMIN_9_10  1
    BUY_9_10  LOTMAX_9_10  1
    BUY_9_10  CBAL_9_10  -1
    MARKER  'MARKER'  'INTORG'
    CARGO_9_10  MARGIN  1155.454687
    CARGO_9_10  LOTMIN_9_10  -150
    CARGO_9_10  LOTMAX_9_10  -600
    MARKER  'MARKER'  'INTEND'
    CINV_9_10  MARGIN  0.4
    CINV_9_10  CBAL_9_10  1
    CINV_9_10  CBAL_9_11  -1
    FEED_9_10  CBAL_9_10  1
    FEED_9_10  CDU_10  1
    FEED_9_10  MARGIN  2
    FEED_9_10  CUT_lpg_10  -0.01326285077
    FEED_9_10  CUT_nap_10  -0.1163142539
    FEED_9_10  CUTS_nap_10  -0.0157575203
    FEED_9_10  CUT_ker_10  -0.1065257015
    FEED_9_10  CUTS_ker_10  -0.04329428722
    FEED_9_10  CUT_gso_10  -0.1865257015
    FEED_9_10  CUTS_gso_10  -0.3032318841
    FEED_9_10  CUT_vgo_10  -0.2445619154
    FEED_9_10  CUTS_vgo_10  -0.7951608789
    FEED_9_10  CUT_res_10  -0.3328095769
    FEED_9_10  CUTS_res_10  -2.254346948
    BUY_10_10  MARGIN  72.07395902
    BUY_10_10  LOTMIN_10_10  1
    BUY_10_10  LOTMAX_10_10  1
    BUY_10_10  CBAL_10_10  -1
    MARKER  'MARKER'  'INTORG'
    CARGO_10_10  MARGIN  1902.460911
    CARGO_10_10  LOTMIN_10_10  -150
    CARGO_10_10  LOTMAX_10_10  -600
    MARKER  'MARKER'  'INTEND'
    CINV_10_10  MARGIN  0.4
    CINV_10_10  CBAL_10_10  1
    CINV_10_10  CBAL_10_11  -1
    FEED_10_10  CBAL_10_10  1
    FEED_10_10  CDU_10  1
    FEED_10_10  MARGIN  2
    FEED_10_10  CUT_lpg_10  -0.03393432573
    FEED_10_10  CUT_nap_10  -0.2196716287
    FEED_10_10  CUTS_nap_10  -0.01755328544
    FEED_10_10  CUT_ker_10  -0.1478686515
    FEED_10_10  CUTS_ker_10  -0.03544718993
    FEED_10_10  CUT_gso_10  -0.2278686515
    FEED_10_10  CUTS_gso_10  -0.2184994125
    FEED_10_10  CUT_vgo_10  -0.2101094571
    FEED_10_10  CUTS_vgo_10  -0.4029408402
    FEED_10_10  CUT_res_10  -0.1605472856
    FEED_10_10  CUTS_res_10  -0.6414420352
    BUY_11_10  MARGIN  72.70793959
    BUY_11_10  LOTMIN_11_10  1
    BUY_11_10  LOTMAX_11_10  1
    BUY_11_10  CBAL_11_10  -1
    MARKER  'MARKER'  'INTORG'
    CARGO_11_10  MARGIN  814.4164462
    CARGO_11_10  LOTMIN_11_10  -150
    CARGO_11_10  LOTMAX_11_10  -600
    MARKER  'MARKER'  'INTEND'
    CINV_11_10  MARGIN  0.4
    CINV_11_10  CBAL_11_10  1
    CINV_11_10  CBAL_11_11  -1
    FEED_11_10  CBAL_11_10  1
    FEED_11_10  CDU_10  1
    FEED_11_10  MARGIN  2
    FEED_11_10  CUT_lpg_10  -0.03231526356
    FEED_11_10  CUT_nap_10  -0.2115763178
    FEED_11_10  CUTS_nap_10  -0.01382544985
    FEED_11_10  CUT_ker_10  -0.1446305271
    FEED_11_10  CUTS_ker_10  -0.02835263588
    FEED_11_10  CUT_gso_10  -0.2246305271
    FEED_11_10  CUTS_gso_10  -0.1761417225
    FEED_11_10  CUT_vgo_10  -0.2128078941
    FEED_11_10  CUTS_vgo_10  -0.3337422523
    FEED_11_10  CUT_res_10  -0.1740394703
    FEED_11_10  CUTS_res_10  -0.5686302689
    SR_lpg_10  CUT_lpg_10  1
    SR_lpg_10  LPGP_10  1
    SRS_lpg_10  CUTS_lpg_10  1
    SRS_lpg_10  SULF_10  1
    SR_nap_10  CUT_nap_10  1
    SR_nap_10  NAP_10  1
    SRS_nap_10  CUTS_nap_10  1
    SRS_nap_10  SULF_10  1
    SR_ker_10  CUT_ker_10  1
    SR_ker_10  KER_10  1
    SRS_ker_10  CUTS_ker_10  1
    SRS_ker_10  SULF_10  1
    SR_gso_10  CUT_gso_10  1
    SR_gso_10  GSO_10  1
    SRS_gso_10  CUTS_gso_10  1
    SRS_gso_10  SULF_10  1
    SR_vgo_10  CUT_vgo_10  1
    SR_vgo_10  VGO_10  1
    SRS_vgo_10  CUTS_vgo_10  1
    SRS_vgo_10  SULF_10  1
    SR_res_10  CUT_res_10  1
    SR_res_10  RES_10  1
    SRS_res_10  CUTS_res_10  1
    SRS_res_10  SULF_10  1
    MARKER  'MARKER'  'INTORG'
    FCCON_10  MARGIN  3000
    FCCON_10  FCCMIN_10  -180
    FCCON_10  FCCMAX_10  -450
    MARKER  'MARKER'  'INTEND'
    FCCFEED_10  MARGIN  4
    FCCFEED_10  FCCMIN_10  1
    FCCFEED_10  FCCMAX_10  1
    FCCFEED_10  VGO_10  -1
    FCCFEED_10  GAS_10  0.55
    FCCFEED_10  GASOCT_10  2.75
    FCCFEED_10  DSL_10  0.3
    FCCFEED_10  FO_10  0.1
    FCCFEED_10  DSLS_10  0.24
    VGO2FO_10  VGO_10  -1
    VGO2FO_10  FO_10  1
    NAP2GAS_10  NAP_10  -1
    NAP2GAS_10  GAS_10  1
    NAP2GAS_10  GASOCT_10  -19
    NAP2FO_10  NAP_10  -1
    NAP2FO_10  FO_10  1
    KER2JET_10  KER_10  -1
    KER2JET_10  JET_10  1
    KER2JET_10  JETS_10  -0.05
    KER2DSL_10  KER_10  -1
    KER2DSL_10  DSL_10  1
    KER2DSL_10  DSLS_10  0.9
    GSO2DSL_10  GSO_10  -1
    GSO2DSL_10  DSL_10  1
    GSO2DSL_10  DSLS_10  1.4
    GSO2FO_10  GSO_10  -1
    GSO2FO_10  FO_10  1
    RES2FO_10  RES_10  -1
    RES2FO_10  FO_10  1
    PROD_lpg_10  LPGP_10  -1
    PROD_lpg_10  PBAL_lpg_10  1
    PROD_gas_10  GAS_10  -1
    PROD_gas_10  PBAL_gas_10  1
    PROD_jet_10  JET_10  -1
    PROD_jet_10  PBAL_jet_10  1
    PROD_dsl_10  DSL_10  -1
    PROD_dsl_10  DSLS_10  -1
    PROD_dsl_10  PBAL_dsl_10  1
    PROD_fo_10  FO_10  -1
    PROD_fo_10  PBAL_fo_10  1
    SELL_lpg_10  MARGIN  -60
    SELL_lpg_10  PBAL_lpg_10  -1
    PINV_lpg_10  MARGIN  0.8
    PINV_lpg_10  PBAL_lpg_10  -1
    PINV_lpg_10  PBAL_lpg_11  1
    SELL_gas_10  MARGIN  -105
    SELL_gas_10  PBAL_gas_10  -1
    PINV_gas_10  MARGIN  0.8
    PINV_gas_10  PBAL_gas_10  -1
    PINV_gas_10  PBAL_gas_11  1
    SELL_jet_10  MARGIN  -100
    SELL_jet_10  PBAL_jet_10  -1
    PINV_jet_10  MARGIN  0.8
    PINV_jet_10  PBAL_jet_10  -1
    PINV_jet_10  PBAL_jet_11  1
    SELL_dsl_10  MARGIN  -98
    SELL_dsl_10  PBAL_dsl_10  -1
    PINV_dsl_10  MARGIN  0.8
    PINV_dsl_10  PBAL_dsl_10  -1
    PINV_dsl_10  PBAL_dsl_11  1
    SELL_fo_10  MARGIN  -55
    SELL_fo_10  PBAL_fo_10  -1
    PINV_fo_10  MARGIN  0.8
    PINV_fo_10  PBAL_fo_10  -1
    PINV_fo_10  PBAL_fo_11  1
    BUY_0_11  MARGIN  62.43723806
    BUY_0_11  LOTMIN_0_11  1
    BUY_0_11  LOTMAX_0_11  1
    BUY_0_11  CBAL_0_11  -1
    MARKER  'MARKER'  'INTORG'
    CARGO_0_11  MARGIN  1233.617344
    CARGO_0_11  LOTMIN_0_11  -150
    CARGO_0_11  LOTMAX_0_11  -600
    MARKER  'MARKER'  'INTEND'
    CINV_0_11  MARGIN  0.4
    CINV_0_11  CBAL_0_11  1
    FEED_0_11  CBAL_0_11  1
    FEED_0_11  CDU_11  1
    FEED_0_11  MARGIN  2
    FEED_0_11  CUT_lpg_11  -0.01403092732
    FEED_0_11  CUT_nap_11  -0.1201546366
    FEED_0_11  CUTS_nap_11  -0.01536512163
    FEED_0_11  CUT_ker_11  -0.1080618546
    FEED_0_11  CUTS_ker_11  -0.04145616649
    FEED_0_11  CUT_gso_11  -0.1880618546
    FEED_0_11  CUTS_gso_11  -0.2885874421
    FEED_0_11  CUT_vgo_11  -0.2432817878
    FEED_0_11  CUTS_vgo_11  -0.7466486916
    FEED_0_11  CUT_res_11  -0.326408939
    FEED_0_11  CUTS_res_11  -2.08702435
    BUY_1_11  MARGIN  62.98571642
    BUY_1_11  LOTMIN_1_11  1
    BUY_1_11  LOTMAX_1_11  1
    BUY_1_11  CBAL_1_11  -1
    MARKER  'MARKER'  'INTORG'
    CARGO_1_11  MARGIN  852.0029712
    CARGO_1_11  LOTMIN_1_11  -150
    CARGO_1_11  LOTMAX_1_11  -600
    MARKER  'MARKER'  'INTEND'
    CINV_1_11  MARGIN  0.4
    CINV_1_11  CBAL_1_11  1
    FEED_1_11  CBAL_1_11  1
    FEED_1_11  CDU_11  1
    FEED_1_11  MARGIN  2
    FEED_1_11  CUT_lpg_11  -0.01686286664
    FEED_1_11  CUT_nap_11  -0.1343143332
    FEED_1_11  CUTS_nap_11  -0.01908126512
    FEED_1_11  CUT_ker_11  -0.1137257333
    FEED_1_11  CUTS_ker_11  -0.0484690833
    FEED_1_11  CUT_gso_11  -0.1937257333
    FEED_1_11  CUTS_gso_11  -0.330258014
    FEED_1_11  CUT_vgo_11  -0.2385618889
    FEED_1_11  CUTS_vgo_11  -0.8133867848
    FEED_1_11  CUT_res_11  -0.3028094447
    FEED_1_11  CUTS_res_11  -2.150919846
    BUY_2_11  MARGIN  66.0530987
    BUY_2_11  LOTMIN_2_11  1
    BUY_2_11  LOTMAX_2_11  1
    BUY_2_11  CBAL_2_11  -1
    MARKER  'MARKER'  'INTORG'
    CARGO_2_11  MARGIN  836.532499
    CARGO_2_11  LOTMIN_2_11  -150
    CARGO_2_11  LOTMAX_2_11  -600
    MARKER  'MARKER'  'INTEND'
    CINV_2_11  MARGIN  0.4
    CINV_2_11  CBAL_2_11  1
    FEED_2_11  CBAL_2_11  1
    FEED_2_11  CDU_11  1
    FEED_2_11  MARGIN  2
    FEED_2_11  CUT_lpg_11  -0.01656343112
    FEED_2_11  CUT_nap_11  -0.1328171556
    FEED_2_11  CUTS_nap_11  -0.009515353406
    FEED_2_11  CUT_ker_11  -0.1131268622
    FEED_2_11  CUTS_ker_11  -0.02431407454
    FEED_2_11  CUT_gso_11  -0.1931268622
    FEED_2_11  CUTS_gso_11  -0.1660331006
    FEED_2_11  CUT_vgo_11  -0.2390609481
    FEED_2_11  CUTS_vgo_11  -0.41104619
    FEED_2_11  CUT_res_11  -0.3053047407
    FEED_2_11  CUTS_res_11  -1.093639783
    BUY_3_11  MARGIN  70.99835779
    BUY_3_11  LOTMIN_3_11  1
    BUY_3_11  LOTMAX_3_11  1
    BUY_3_11  CBAL_3_11  -1
    MARKER  'MARKER'  'INTORG'
    CARGO_3_11  MARGIN  1798.88703
    CARGO_3_11  LOTMIN_3_11  -150
    CARGO_3_11  LOTMAX_3_11  -600
    MARKER  'MARKER'  'INTEND'
    CINV_3_11  MARGIN  0.4
    CINV_3_11  CBAL_3_11  1
    FEED_3_11  CBAL_3_11  1
    FEED_3_11  CDU_11  1
    FEED_3_11  MARGIN  2
    FEED_3_11  CUT_lpg_11  -0.0349010708
    FEED_3_11  CUT_nap_11  -0.224505354
    FEED_3_11  CUTS_nap_11  -0.0229431691
    FEED_3_11  CUT_ker_11  -0.1498021416
    FEED_3_11  CUTS_ker_11  -0.0459267782
    FEED_3_11  CUT_gso_11  -0.2298021416
    FEED_3_11  CUTS_gso_11  -0.2818136476
    FEED_3_11  CUT_vgo_11  -0.2084982153
    FEED_3_11  CUTS_vgo_11  -0.5113759357
    FEED_3_11  CUT_res_11  -0.1524910767
    FEED_3_11  CUTS_res_11  -0.7791859962
    BUY_4_11  MARGIN  69.03818729
    BUY_4_11  LOTMIN_4_11  1
    BUY_4_11  LOTMAX_4_11  1
    BUY_4_11  CBAL_4_11  -1
    MARKER  'MARKER'  'INTORG'
    CARGO_4_11  MARGIN  2123.352446
    CARGO_4_11  LOTMIN_4_11  -150
    CARGO_4_11  LOTMAX_4_11  -600
    MARKER  'MARKER'  'INTEND'
    CINV_4_11  MARGIN  0.4
    CINV_4_11  CBAL_4_11  1
    FEED_4_11  CBAL_4_11  1
    FEED_4_11  CDU_11  1
    FEED_4_11  MARGIN  2
    FEED_4_11  CUT_lpg_11  -0.02124109062
    FEED_4_11  CUT_nap_11  -0.1562054531
    FEED_4_11  CUTS_nap_11  -0.01072341631
    FEED_4_11  CUT_ker_11  -0.1224821812
    FEED_4_11  CUTS_ker_11  -0.02522499812
    FEED_4_11  CUT_gso_11  -0.2024821812
    FEED_4_11  CUTS_gso_11  -0.1668034514
    FEED_4_11  CUT_vgo_11  -0.231264849
    FEED_4_11  CUTS_vgo_11  -0.3810288367
    FEED_4_11  CUT_res_11  -0.2663242449
    FEED_4_11  CUTS_res_11  -0.9141504649
    BUY_5_11  MARGIN  74.02787439
    BUY_5_11  LOTMIN_5_11  1
    BUY_5_11  LOTMAX_5_11  1
    BUY_5_11  CBAL_5_11  -1
    MARKER  'MARKER'  'INTORG'
    CARGO_5_11  MARGIN  1194.699418
    CARGO_5_11  LOTMIN_5_11  -150
    CARGO_5_11  LOTMAX_5_11  -600
    MARKER  'MARKER'  'INTEND'
    CINV_5_11  MARGIN  0.4
    CINV_5_11  CBAL_5_11  1
    FEED_5_11  CBAL_5_11  1
    FEED_5_11  CDU_11  1
    FEED_5_11  MARGIN  2
    FEED_5_11  CUT_lpg_11  -0.03311569419
    FEED_5_11  CUT_nap_11  -0.215578471
    FEED_5_11  CUTS_nap_11  -0.0179457285
    FEED_5_11  CUT_ker_11  -0.1462313884
    FEED_5_11  CUTS_ker_11  -0.0365188896
    FEED_5_11  CUT_gso_11  -0.2262313884
    FEED_5_11  CUTS_gso_11  -0.2259903072
    FEED_5_11  CUT_vgo_11  -0.211473843
    FEED_5_11  CUTS_vgo_11  -0.4224969762
    FEED_5_11  CUT_res_11  -0.167369215
    FEED_5_11  CUTS_res_11  -0.6966285823
    BUY_6_11  MARGIN  73.53844218
    BUY_6_11  LOTMIN_6_11  1
    BUY_6_11  LOTMAX_6_11  1
    BUY_6_11  CBAL_6_11  -1
    MARKER  'MARKER'  'INTORG'
    CARGO_6_11  MARGIN  1524.354155
    CARGO_6_11  LOTMIN_6_11  -150
    CARGO_6_11  LOTMAX_6_11  -600
    MARKER  'MARKER'  'INTEND'
    CINV_6_11  MARGIN  0.4
    CINV_6_11  CBAL_6_11  1
    FEED_6_11  CBAL_6_11  1
    FEED_6_11  CDU_11  1
    FEED_6_11  MARGIN  2
    FEED_6_11  CUT_lpg_11  -0.03427419703
    FEED_6_11  CUT_nap_11  -0.2213709851
    FEED_6_11  CUTS_nap_11  -0.0177558017
    FEED_6_11  CUT_ker_11  -0.1485483941
    FEED_6_11  CUTS_ker_11  -0.03574446524
    FEED_6_11  CUT_gso_11  -0.2285483941
    FEED_6_11  CUTS_gso_11  -0.219977878
    FEED_6_11  CUT_vgo_11  -0.209543005
    FEED_6_11  CUTS_vgo_11  -0.4033703739
    FEED_6_11  CUT_res_11  -0.1577150248
    FEED_6_11  CUTS_res_11  -0.6325031042
    BUY_7_11  MARGIN  65.98112648
    BUY_7_11  LOTMIN_7_11  1
    BUY_7_11  LOTMAX_7_11  1
    BUY_7_11  CBAL_7_11  -1
    MARKER  'MARKER'  'INTORG'
    CARGO_7_11  MARGIN  1793.58348
    CARGO_7_11  LOTMIN_7_11  -150
    CARGO_7_11  LOTMAX_7_11  -600
    MARKER  'MARKER'  'INTEND'
    CINV_7_11  MARGIN  0.4
    CINV_7_11  CBAL_7_11  1
    FEED_7_11  CBAL_7_11  1
    FEED_7_11  CDU_11  1
    FEED_7_11  MARGIN  2
    FEED_7_11  CUT_lpg_11  -0.01083924952
    FEED_7_11  CUT_nap_11  -0.1041962476
    FEED_7_11  CUTS_nap_11  -0.003989958728
    FEED_7_11  CUT_ker_11  -0.101678499
    FEED_7_11  CUTS_ker_11  -0.01168064179
    FEED_7_11  CUT_gso_11  -0.181678499
    FEED_7_11  CUTS_gso_11  -0.08348358752
    FEED_7_11  CUT_vgo_11  -0.2486012508
    FEED_7_11  CUTS_vgo_11  -0.228470891
    FEED_7_11  CUT_res_11  -0.353006254
    FEED_7_11  CUTS_res_11  -0.6758786504
    BUY_8_11  MARGIN  63.04385081
    BUY_8_11  LOTMIN_8_11  1
    BUY_8_11  LOTMAX_8_11  1
    BUY_8_11  CBAL_8_11  -1
    MARKER  'MARKER'  'INTORG'
    CARGO_8_11  MARGIN  918.1761435
    CARGO_8_11  LOTMIN_8_11  -150
    CARGO_8_11  LOTMAX_8_11  -600
    MARKER  'MARKER'  'INTEND'
    CINV_8_11  MARGIN  0.4
    CINV_8_11  CBAL_8_11  1
    FEED_8_11  CBAL_8_11  1
    FEED_8_11  CDU_11  1
    FEED_8_11  MARGIN  2
    FEED_8_11  CUT_lpg_11  -0.01328465882
    FEED_8_11  CUT_nap_11  -0.1164232941
    FEED_8_11  CUTS_nap_11  -0.01112963641
    FEED_8_11  CUT_ker_11  -0.1065693176
    FEED_8_11  CUTS_ker_11  -0.03056289808
    FEED_8_11  CUT_gso_11  -0.1865693176
    FEED_8_11  CUTS_gso_11  -0.2140240424
    FEED_8_11  CUT_vgo_11  -0.2445255686
    FEED_8_11  CUTS_vgo_11  -0.5610177637
    FEED_8_11  CUT_res_11  -0.3326278432
    FEED_8_11  CUTS_res_11  -1.589899591
    BUY_9_11  MARGIN  60.50770963
    BUY_9_11  LOTMIN_9_11  1
    BUY_9_11  LOTMAX_9_11  1
    BUY_9_11  CBAL_9_11  -1
    MARKER  'MARKER'  'INTORG'
    CARGO_9_11  MARGIN  1155.454687
    CARGO_9_11  LOTMIN_9_11  -150
    CARGO_9_11  LOTMAX_9_11  -600
    MARKER  'MARKER'  'INTEND'
    CINV_9_11  MARGIN  0.4
    CINV_9_11  CBAL_9_11  1
    FEED_9_11  CBAL_9_11  1
    FEED_9_11  CDU_11  1
    FEED_9_11  MARGIN  2
    FEED_9_11  CUT_lpg_11  -0.01326285077
    FEED_9_11  CUT_nap_11  -0.1163142539
    FEED_9_11  CUTS_nap_11  -0.0157575203
    FEED_9_11  CUT_ker_11  -0.1065257015
    FEED_9_11  CUTS_ker_11  -0.04329428722
    FEED_9_11  CUT_gso_11  -0.1865257015
    FEED_9_11  CUTS_gso_11  -0.3032318841
    FEED_9_11  CUT_vgo_11  -0.2445619154
    FEED_9_11  CUTS_vgo_11  -0.7951608789
    FEED_9_11  CUT_res_11  -0.3328095769
    FEED_9_11  CUTS_res_11  -2.254346948
    BUY_10_11  MARGIN  72.07395902
    BUY_10_11  LOTMIN_10_11  1
    BUY_10_11  LOTMAX_10_11  1
    BUY_10_11  CBAL_10_11  -1
    MARKER  'MARKER'  'INTORG'
    CARGO_10_11  MARGIN  1902.460911
    CARGO_10_11  LOTMIN_10_11  -150
    CARGO_10_11  LOTMAX_10_11  -600
    MARKER  'MARKER'  'INTEND'
    CINV_10_11  MARGIN  0.4
    CINV_10_11  CBAL_10_11  1
    FEED_10_11  CBAL_10_11  1
    FEED_10_11  CDU_11  1
    FEED_10_11  MARGIN  2
    FEED_10_11  CUT_lpg_11  -0.03393432573
    FEED_10_11  CUT_nap_11  -0.2196716287
    FEED_10_11  CUTS_nap_11  -0.01755328544
    FEED_10_11  CUT_ker_11  -0.1478686515
    FEED_10_11  CUTS_ker_11  -0.03544718993
    FEED_10_11  CUT_gso_11  -0.2278686515
    FEED_10_11  CUTS_gso_11  -0.2184994125
    FEED_10_11  CUT_vgo_11  -0.2101094571
    FEED_10_11  CUTS_vgo_11  -0.4029408402
    FEED_10_11  CUT_res_11  -0.1605472856
    FEED_10_11  CUTS_res_11  -0.6414420352
    BUY_11_11  MARGIN  72.70793959
    BUY_11_11  LOTMIN_11_11  1
    BUY_11_11  LOTMAX_11_11  1
    BUY_11_11  CBAL_11_11  -1
    MARKER  'MARKER'  'INTORG'
    CARGO_11_11  MARGIN  814.4164462
    CARGO_11_11  LOTMIN_11_11  -150
    CARGO_11_11  LOTMAX_11_11  -600
    MARKER  'MARKER'  'INTEND'
    CINV_11_11  MARGIN  0.4
    CINV_11_11  CBAL_11_11  1
    FEED_11_11  CBAL_11_11  1
    FEED_11_11  CDU_11  1
    FEED_11_11  MARGIN  2
    FEED_11_11  CUT_lpg_11  -0.03231526356
    FEED_11_11  CUT_nap_11  -0.2115763178
    FEED_11_11  CUTS_nap_11  -0.01382544985
    FEED_11_11  CUT_ker_11  -0.1446305271
    FEED_11_11  CUTS_ker_11  -0.02835263588
    FEED_11_11  CUT_gso_11  -0.2246305271
    FEED_11_11  CUTS_gso_11  -0.1761417225
    FEED_11_11  CUT_vgo_11  -0.2128078941
    FEED_11_11  CUTS_vgo_11  -0.3337422523
    FEED_11_11  CUT_res_11  -0.1740394703
    FEED_11_11  CUTS_res_11  -0.5686302689
    SR_lpg_11  CUT_lpg_11  1
    SR_lpg_11  LPGP_11  1
    SRS_lpg_11  CUTS_lpg_11  1
    SRS_lpg_11  SULF_11  1
    SR_nap_11  CUT_nap_11  1
    SR_nap_11  NAP_11  1
    SRS_nap_11  CUTS_nap_11  1
    SRS_nap_11  SULF_11  1
    SR_ker_11  CUT_ker_11  1
    SR_ker_11  KER_11  1
    SRS_ker_11  CUTS_ker_11  1
    SRS_ker_11  SULF_11  1
    SR_gso_11  CUT_gso_11  1
    SR_gso_11  GSO_11  1
    SRS_gso_11  CUTS_gso_11  1
    SRS_gso_11  SULF_11  1
    SR_vgo_11  CUT_vgo_11  1
    SR_vgo_11  VGO_11  1
    SRS_vgo_11  CUTS_vgo_11  1
    SRS_vgo_11  SULF_11  1
    SR_res_11  CUT_res_11  1
    SR_res_11  RES_11  1
    SRS_res_11  CUTS_res_11  1
    SRS_res_11  SULF_11  1
    MARKER  'MARKER'  'INTORG'
    FCCON_11  MARGIN  3000
    FCCON_11  FCCMIN_11  -180
    FCCON_11  FCCMAX_11  -450
    MARKER  'MARKER'  'INTEND'
    FCCFEED_11  MARGIN  4
    FCCFEED_11  FCCMIN_11  1
    FCCFEED_11  FCCMAX_11  1
    FCCFEED_11  VGO_11  -1
    FCCFEED_11  GAS_11  0.55
    FCCFEED_11  GASOCT_11  2.75
    FCCFEED_11  DSL_11  0.3
    FCCFEED_11  FO_11  0.1
    FCCFEED_11  DSLS_11  0.24
    VGO2FO_11  VGO_11  -1
    VGO2FO_11  FO_11  1
    NAP2GAS_11  NAP_11  -1
    NAP2GAS_11  GAS_11  1
    NAP2GAS_11  GASOCT_11  -19
    NAP2FO_11  NAP_11  -1
    NAP2FO_11  FO_11  1
    KER2JET_11  KER_11  -1
    KER2JET_11  JET_11  1
    KER2JET_11  JETS_11  -0.05
    KER2DSL_11  KER_11  -1
    KER2DSL_11  DSL_11  1
    KER2DSL_11  DSLS_11  0.9
    GSO2DSL_11  GSO_11  -1
    GSO2DSL_11  DSL_11  1
    GSO2DSL_11  DSLS_11  1.4
    GSO2FO_11  GSO_11  -1
    GSO2FO_11  FO_11  1
    RES2FO_11  RES_11  -1
    RES2FO_11  FO_11  1
    PROD_lpg_11  LPGP_11  -1
    PROD_lpg_11  PBAL_lpg_11  1
    PROD_gas_11  GAS_11  -1
    PROD_gas_11  PBAL_gas_11  1
    PROD_jet_11  JET_11  -1
    PROD_jet_11  PBAL_jet_11  1
    PROD_dsl_11  DSL_11  -1
    PROD_dsl_11  DSLS_11  -1
    PROD_dsl_11  PBAL_dsl_11  1
    PROD_fo_11  FO_11  -1
    PROD_fo_11  PBAL_fo_11  1
    SELL_lpg_11  MARGIN  -60
    SELL_lpg_11  PBAL_lpg_11  -1
    PINV_lpg_11  MARGIN  0.8
    PINV_lpg_11  PBAL_lpg_11  -1
    SELL_gas_11  MARGIN  -105
    SELL_gas_11  PBAL_gas_11  -1
    PINV_gas_11  MARGIN  0.8
    PINV_gas_11  PBAL_gas_11  -1
    SELL_jet_11  MARGIN  -100
    SELL_jet_11  PBAL_jet_11  -1
    PINV_jet_11  MARGIN  0.8
    PINV_jet_11  PBAL_jet_11  -1
    SELL_dsl_11  MARGIN  -98
    SELL_dsl_11  PBAL_dsl_11  -1
    PINV_dsl_11  MARGIN  0.8
    PINV_dsl_11  PBAL_dsl_11  -1
    SELL_fo_11  MARGIN  -55
    SELL_fo_11  PBAL_fo_11  -1
    PINV_fo_11  MARGIN  0.8
    PINV_fo_11  PBAL_fo_11  -1
RHS
    RHS  CBAL_0_0  200
    RHS  CDU_0  1800
    RHS  CBAL_1_0  200
    RHS  CBAL_2_0  200
    RHS  CBAL_3_0  200
    RHS  CBAL_4_0  200
    RHS  CBAL_5_0  200
    RHS  CBAL_6_0  200
    RHS  CBAL_7_0  200
    RHS  CBAL_8_0  200
    RHS  CBAL_9_0  200
    RHS  CBAL_10_0  200
    RHS  CBAL_11_0  200
    RHS  SULF_0  30.24
    RHS  CDU_1  1800
    RHS  SULF_1  30.24
    RHS  CDU_2  1800
    RHS  SULF_2  30.24
    RHS  CDU_3  1800
    RHS  SULF_3  30.24
    RHS  CDU_4  1800
    RHS  SULF_4  30.24
    RHS  CDU_5  1800
    RHS  SULF_5  30.24
    RHS  CDU_6  1800
    RHS  SULF_6  30.24
    RHS  CDU_7  1800
    RHS  SULF_7  30.24
    RHS  CDU_8  1800
    RHS  SULF_8  30.24
    RHS  CDU_9  1800
    RHS  SULF_9  30.24
    RHS  CDU_10  1800
    RHS  SULF_10  30.24
    RHS  CDU_11  1800
    RHS  SULF_11  30.24
BOUNDS
 UP BND  CARGO_0_0  1
 UP BND  CINV_0_0  1500
 UP BND  CARGO_1_0  1
 UP BND  CINV_1_0  1500
 UP BND  CARGO_2_0  0
 UP BND  CINV_2_0  1500
 UP BND  CARGO_3_0  0
 UP BND  CINV_3_0  1500
 UP BND  CARGO_4_0  1
 UP BND  CINV_4_0  1500
 UP BND  CARGO_5_0  1
 UP BND  CINV_5_0  1500
 UP BND  CARGO_6_0  1
 UP BND  CINV_6_0  1500
 UP BND  CARGO_7_0  0
 UP BND  CINV_7_0  1500
 UP BND  CARGO_8_0  1
 UP BND  CINV_8_0  1500
 UP BND  CARGO_9_0  1
 UP BND  CINV_9_0  1500
 UP BND  CARGO_10_0  1
 UP BND  CINV_10_0  1500
 UP BND  CARGO_11_0  0
 UP BND  CINV_11_0  1500
 UP BND  FCCON_0  1
 UP BND  SELL_lpg_0  52.938282175072914
 UP BND  PINV_lpg_0  300
 UP BND  SELL_gas_0  396.1535420593367
 UP BND  PINV_gas_0  300
 UP BND  SELL_jet_0  178.88390802809957
 UP BND  PINV_jet_0  300
 UP BND  SELL_dsl_0  486.7793288804135
 UP BND  PINV_dsl_0  300
 UP BND  SELL_fo_0  446.0986317960362
 UP BND  PINV_fo_0  300
 UP BND  CARGO_0_1  1
 UP BND  CINV_0_1  1500
 UP BND  CARGO_1_1  1
 UP BND  CINV_1_1  1500
 UP BND  CARGO_2_1  1
 UP BND  CINV_2_1  1500
 UP BND  CARGO_3_1  0
 UP BND  CINV_3_1  1500
 UP BND  CARGO_4_1  1
 UP BND  CINV_4_1  1500
 UP BND  CARGO_5_1  0
 UP BND  CINV_5_1  1500
 UP BND  CARGO_6_1  0
 UP BND  CINV_6_1  1500
 UP BND  CARGO_7_1  1
 UP BND  CINV_7_1  1500
 UP BND  CARGO_8_1  1
 UP BND  CINV_8_1  1500
 UP BND  CARGO_9_1  0
 UP BND  CINV_9_1  1500
 UP BND  CARGO_10_1  1
 UP BND  CINV_10_1  1500
 UP BND  CARGO_11_1  1
 UP BND  CINV_11_1  1500
 UP BND  FCCON_1  1
 UP BND  SELL_lpg_1  64.17967234192473
 UP BND  PINV_lpg_1  300
 UP BND  SELL_gas_1  418.99332691732815
 UP BND  PINV_gas_1  300
 UP BND  SELL_jet_1  214.9565925474574
 UP BND  PINV_jet_1  300
 UP BND  SELL_dsl_1  476.57277978151603
 UP BND  PINV_dsl_1  300
 UP BND  SELL_fo_1  452.5609554350582
 UP BND  PINV_fo_1  300
 UP BND  CARGO_0_2  1
 UP BND  CINV_0_2  1500
 UP BND  CARGO_1_2  0
 UP BND  CINV_1_2  1500
 UP BND  CARGO_2_2  1
 UP BND  CINV_2_2  1500
 UP BND  CARGO_3_2  1
 UP BND  CINV_3_2  1500
 UP BND  CARGO_4_2  1
 UP BND  CINV_4_2  1500
 UP BND  CARGO_5_2  1
 UP BND  CINV_5_2  1500
 UP BND  CARGO_6_2  1
 UP BND  CINV_6_2  1500
 UP BND  CARGO_7_2  1
 UP BND  CINV_7_2  1500
 UP BND  CARGO_8_2  1
 UP BND  CINV_8_2  1500
 UP BND  CARGO_9_2  1
 UP BND  CINV_9_2  1500
 UP BND  CARGO_10_2  1
 UP BND  CINV_10_2  1500
 UP BND  CARGO_11_2  0
 UP BND  CINV_11_2  1500
 UP BND  FCCON_2  1
 UP BND  SELL_lpg_2  58.39080290640759
 UP BND  PINV_lpg_2  300
 UP BND  SELL_gas_2  537.6689492270447
 UP BND  PINV_gas_2  300
 UP BND  SELL_jet_2  160.89411131071478
 UP BND  PINV_jet_2  300
 UP BND  SELL_dsl_2  596.4233233060758
 UP BND  PINV_dsl_2  300
 UP BND  SELL_fo_2  374.54359425865334
 UP BND  PINV_fo_2  300
 UP BND  CARGO_0_3  1
 UP BND  CINV_0_3  1500
 UP BND  CARGO_1_3  1
 UP BND  CINV_1_3  1500
 UP BND  CARGO_2_3  1
 UP BND  CINV_2_3  1500
 UP BND  CARGO_3_3  1
 UP BND  CINV_3_3  1500
 UP BND  CARGO_4_3  1
 UP BND  CINV_4_3  1500
 UP BND  CARGO_5_3  1
 UP BND  CINV_5_3  1500
 UP BND  CARGO_6_3  1
 UP BND  CINV_6_3  1500
 UP BND  CARGO_7_3  0
 UP BND  CINV_7_3  1500
 UP BND  CARGO_8_3  1
 UP BND  CINV_8_3  1500
 UP BND  CARGO_9_3  1
 UP BND  CINV_9_3  1500
 UP BND  CARGO_10_3  1
 UP BND  CINV_10_3  1500
 UP BND  CARGO_11_3  0
 UP BND  CINV_11_3  1500
 UP BND  FCCON_3  1
 UP BND  SELL_lpg_3  52.65884747964455
 UP BND  PINV_lpg_3  300
 UP BND  SELL_gas_3  500.8860676312876
 UP BND  PINV_gas_3  300
 UP BND  SELL_jet_3  196.23349340937162
 UP BND  PINV_jet_3  300
 UP BND  SELL_dsl_3  541.6283660094759
 UP BND  PINV_dsl_3  300
 UP BND  SELL_fo_3  418.42976520944586
 UP BND  PINV_fo_3  300
 UP BND  CARGO_0_4  1
 UP BND  CINV_0_4  1500
 UP BND  CARGO_1_4  1
 UP BND  CINV_1_4  1500
 UP BND  CARGO_2_4  0
 UP BND  CINV_2_4  1500
 UP BND  CARGO_3_4  1
 UP BND  CINV_3_4  1500
 UP BND  CARGO_4_4  1
 UP BND  CINV_4_4  1500
 UP BND  CARGO_5_4  1
 UP BND  CINV_5_4  1500
 UP BND  CARGO_6_4  1
 UP BND  CINV_6_4  1500
 UP BND  CARGO_7_4  1
 UP BND  CINV_7_4  1500
 UP BND  CARGO_8_4  1
 UP BND  CINV_8_4  1500
 UP BND  CARGO_9_4  1
 UP BND  CINV_9_4  1500
 UP BND  CARGO_10_4  1
 UP BND  CINV_10_4  1500
 UP BND  CARGO_11_4  1
 UP BND  CINV_11_4  1500
 UP BND  FCCON_4  1
 UP BND  SELL_lpg_4  50.50618134819637
 UP BND  PINV_lpg_4  300
 UP BND  SELL_gas_4  421.0372166131681
 UP BND  PINV_gas_4  300
 UP BND  SELL_jet_4  150.09697658998687
 UP BND  PINV_jet_4  300
 UP BND  SELL_dsl_4  614.4959510918154
 UP BND  PINV_dsl_4  300
 UP BND  SELL_fo_4  445.10457626124077
 UP BND  PINV_fo_4  300
 UP BND  CARGO_0_5  1
 UP BND  CINV_0_5  1500
 UP BND  CARGO_1_5  1
 UP BND  CINV_1_5  1500
 UP BND  CARGO_2_5  0
 UP BND  CINV_2_5  1500
 UP BND  CARGO_3_5  1
 UP BND  CINV_3_5  1500
 UP BND  CARGO_4_5  1
 UP BND  CINV_4_5  1500
 UP BND  CARGO_5_5  1
 UP BND  CINV_5_5  1500
 UP BND  CARGO_6_5  1
 UP BND  CINV_6_5  1500
 UP BND  CARGO_7_5  0
 UP BND  CINV_7_5  1500
 UP BND  CARGO_8_5  1
 UP BND  CINV_8_5  1500
 UP BND  CARGO_9_5  1
 UP BND  CINV_9_5  1500
 UP BND  CARGO_10_5  1
 UP BND  CINV_10_5  1500
 UP BND  CARGO_11_5  1
 UP BND  CINV_11_5  1500
 UP BND  FCCON_5  1
 UP BND  SELL_lpg_5  63.98298067868838
 UP BND  PINV_lpg_5  300
 UP BND  SELL_gas_5  398.34536334854647
 UP BND  PINV_gas_5  300
 UP BND  SELL_jet_5  156.2179782091959
 UP BND  PINV_jet_5  300
 UP BND  SELL_dsl_5  600.5511417811283
 UP BND  PINV_dsl_5  300
 UP BND  SELL_fo_5  380.48634061414197
 UP BND  PINV_fo_5  300
 UP BND  CARGO_0_6  0
 UP BND  CINV_0_6  1500
 UP BND  CARGO_1_6  1
 UP BND  CINV_1_6  1500
 UP BND  CARGO_2_6  1
 UP BND  CINV_2_6  1500
 UP BND  CARGO_3_6  1
 UP BND  CINV_3_6  1500
 UP BND  CARGO_4_6  0
 UP BND  CINV_4_6  1500
 UP BND  CARGO_5_6  0
 UP BND  CINV_5_6  1500
 UP BND  CARGO_6_6  1
 UP BND  CINV_6_6  1500
 UP BND  CARGO_7_6  1
 UP BND  CINV_7_6  1500
 UP BND  CARGO_8_6  1
 UP BND  CINV_8_6  1500
 UP BND  CARGO_9_6  1
 UP BND  CINV_9_6  1500
 UP BND  CARGO_10_6  0
 UP BND  CINV_10_6  1500
 UP BND  CARGO_11_6  0
 UP BND  CINV_11_6  1500
 UP BND  FCCON_6  1
 UP BND  SELL_lpg_6  55.10574415399564
 UP BND  PINV_lpg_6  300
 UP BND  SELL_gas_6  481.4019125502774
 UP BND  PINV_gas_6  300
 UP BND  SELL_jet_6  209.5911204125809
 UP BND  PINV_jet_6  300
 UP BND  SELL_dsl_6  444.15196329825426
 UP BND  PINV_dsl_6  300
 UP BND  SELL_fo_6  411.32504409584374
 UP BND  PINV_fo_6  300
 UP BND  CARGO_0_7  1
 UP BND  CINV_0_7  1500
 UP BND  CARGO_1_7  1
 UP BND  CINV_1_7  1500
 UP BND  CARGO_2_7  1
 UP BND  CINV_2_7  1500
 UP BND  CARGO_3_7  1
 UP BND  CINV_3_7  1500
 UP BND  CARGO_4_7  1
 UP BND  CINV_4_7  1500
 UP BND  CARGO_5_7  1
 UP BND  CINV_5_7  1500
 UP BND  CARGO_6_7  1
 UP BND  CINV_6_7  1500
 UP BND  CARGO_7_7  1
 UP BND  CINV_7_7  1500
 UP BND  CARGO_8_7  1
 UP BND  CINV_8_7  1500
 UP BND  CARGO_9_7  1
 UP BND  CINV_9_7  1500
 UP BND  CARGO_10_7  0
 UP BND  CINV_10_7  1500
 UP BND  CARGO_11_7  0
 UP BND  CINV_11_7  1500
 UP BND  FCCON_7  1
 UP BND  SELL_lpg_7  59.99519813368324
 UP BND  PINV_lpg_7  300
 UP BND  SELL_gas_7  510.78619262771355
 UP BND  PINV_gas_7  300
 UP BND  SELL_jet_7  159.33371003938254
 UP BND  PINV_jet_7  300
 UP BND  SELL_dsl_7  530.6434586063971
 UP BND  PINV_dsl_7  300
 UP BND  SELL_fo_7  355.79425163980306
 UP BND  PINV_fo_7  300
 UP BND  CARGO_0_8  1
 UP BND  CINV_0_8  1500
 UP BND  CARGO_1_8  1
 UP BND  CINV_1_8  1500
 UP BND  CARGO_2_8  1
 UP BND  CINV_2_8  1500
 UP BND  CARGO_3_8  1
 UP BND  CINV_3_8  1500
 UP BND  CARGO_4_8  1
 UP BND  CINV_4_8  1500
 UP BND  CARGO_5_8  1
 UP BND  CINV_5_8  1500
 UP BND  CARGO_6_8  1
 UP BND  CINV_6_8  1500
 UP BND  CARGO_7_8  1
 UP BND  CINV_7_8  1500
 UP BND  CARGO_8_8  1
 UP BND  CINV_8_8  1500
 UP BND  CARGO_9_8  1
 UP BND  CINV_9_8  1500
 UP BND  CARGO_10_8  1
 UP BND  CINV_10_8  1500
 UP BND  CARGO_11_8  1
 UP BND  CINV_11_8  1500
 UP BND  FCCON_8  1
 UP BND  SELL_lpg_8  55.80829571702391
 UP BND  PINV_lpg_8  300
 UP BND  SELL_gas_8  527.7937449408529
 UP BND  PINV_gas_8  300
 UP BND  SELL_jet_8  198.6563651555837
 UP BND  PINV_jet_8  300
 UP BND  SELL_dsl_8  437.68919958703964
 UP BND  PINV_dsl_8  300
 UP BND  SELL_fo_8  333.078921976383
 UP BND  PINV_fo_8  300
 UP BND  CARGO_0_9  1
 UP BND  CINV_0_9  1500
 UP BND  CARGO_1_9  1
 UP BND  CINV_1_9  1500
 UP BND  CARGO_2_9  1
 UP BND  CINV_2_9  1500
 UP BND  CARGO_3_9  1
 UP BND  CINV_3_9  1500
 UP BND  CARGO_4_9  1
 UP BND  CINV_4_9  1500
 UP BND  CARGO_5_9  0
 UP BND  CINV_5_9  1500
 UP BND  CARGO_6_9  1
 UP BND  CINV_6_9  1500
 UP BND  CARGO_7_9  1
 UP BND  CINV_7_9  1500
 UP BND  CARGO_8_9  1
 UP BND  CINV_8_9  1500
 UP BND  CARGO_9_9  1
 UP BND  CINV_9_9  1500
 UP BND  CARGO_10_9  0
 UP BND  CINV_10_9  1500
 UP BND  CARGO_11_9  1
 UP BND  CINV_11_9  1500
 UP BND  FCCON_9  1
 UP BND  SELL_lpg_9  68.91891617816532
 UP BND  PINV_lpg_9  300
 UP BND  SELL_gas_9  421.8929666623476
 UP BND  PINV_gas_9  300
 UP BND  SELL_jet_9  187.21503576952196
 UP BND  PINV_jet_9  300
 UP BND  SELL_dsl_9  424.1406621081574
 UP BND  PINV_dsl_9  300
 UP BND  SELL_fo_9  362.67578287707784
 UP BND  PINV_fo_9  300
 UP BND  CARGO_0_10  1
 UP BND  CINV_0_10  1500
 UP BND  CARGO_1_10  1
 UP BND  CINV_1_10  1500
 UP BND  CARGO_2_10  0
 UP BND  CINV_2_10  1500
 UP BND  CARGO_3_10  1
 UP BND  CINV_3_10  1500
 UP BND  CARGO_4_10  1
 UP BND  CINV_4_10  1500
 UP BND  CARGO_5_10  0
 UP BND  CINV_5_10  1500
 UP BND  CARGO_6_10  1
 UP BND  CINV_6_10  1500
 UP BND  CARGO_7_10  1
 UP BND  CINV_7_10  1500
 UP BND  CARGO_8_10  1
 UP BND  CINV_8_10  1500
 UP BND  CARGO_9_10  1
 UP BND  CINV_9_10  1500
 UP BND  CARGO_10_10  1
 UP BND  CINV_10_10  1500
 UP BND  CARGO_11_10  1
 UP BND  CINV_11_10  1500
 UP BND  FCCON_10  1
 UP BND  SELL_lpg_10  69.59227847123475
 UP BND  PINV_lpg_10  300
 UP BND  SELL_gas_10  518.8307764439634
 UP BND  PINV_gas_10  300
 UP BND  SELL_jet_10  204.56151809082155
 UP BND  PINV_jet_10  300
 UP BND  SELL_dsl_10  431.2242311171285
 UP BND  PINV_dsl_10  300
 UP BND  SELL_fo_10  462.5229004568489
 UP BND  PINV_fo_10  300
 UP BND  CARGO_0_11  1
 UP BND  CINV_0_11  1500
 UP BND  CARGO_1_11  1
 UP BND  CINV_1_11  1500
 UP BND  CARGO_2_11  1
 UP BND  CINV_2_11  1500
 UP BND  CARGO_3_11  1
 UP BND  CINV_3_11  1500
 UP BND  CARGO_4_11  0
 UP BND  CINV_4_11  1500
 UP BND  CARGO_5_11  1
 UP BND  CINV_5_11  1500
 UP BND  CARGO_6_11  1
 UP BND  CINV_6_11  1500
 UP BND  CARGO_7_11  1
 UP BND  CINV_7_11  1500
 UP BND  CARGO_8_11  1
 UP BND  CINV_8_11  1500
 UP BND  CARGO_9_11  0
 UP BND  CINV_9_11  1500
 UP BND  CARGO_10_11  0
 UP BND  CINV_10_11  1500
 UP BND  CARGO_11_11  1
 UP BND  CINV_11_11  1500
 UP BND  FCCON_11  1
 UP BND  SELL_lpg_11  48.43423160737132
 UP BND  PINV_lpg_11  300
 UP BND  SELL_gas_11  483.67983278765837
 UP BND  PINV_gas_11  300
 UP BND  SELL_jet_11  170.50377595720676
 UP BND  PINV_jet_11  300
 UP BND  SELL_dsl_11  596.163018332247
 UP BND  PINV_dsl_11  300
 UP BND  SELL_fo_11  410.31149331843164
 UP BND  PINV_fo_11  300
ENDATA
